% Model:              FEM.mph
% Version:            COMSOL 6.1.0.252
% Date:               Feb 16 2024, 11:34
% Dimension:          3
% Nodes:              795
% Expressions:        4
% Description:        位移场，X 分量, 位移场，Y 分量, 位移场，Z 分量, von Mises 应力
% Length unit:        m
% X                       Y                        Z                        u (mm)                   v (mm)                   w (mm)                   solid.mises (N/m^2)
0                         0.06828527626681734      0.07678574681351863      0                        0                        0                        3896373.8253071806
0.05074367826385415       0.08932277506900721      0.05022934590762831      -0.1070635229775727      -0.002837134493613475    -0.042263167842200494    6617278.722347823
0                         0                        0                        0                        0                        0                        8985375.76034265
0                         0.1                      0                        0                        0                        0                        8289623.607099868
0                         0.13488379034407055      0.06491853358226111      0                        0                        0                        4322105.384692075
0                         0                        0.09999999999999996      0                        0                        0                        3909948.939107532
0.07084218847949889       0                        0.06335922201745484      -0.14650147524819065     -0.03799277423338736     -0.05260319038939332     6260882.180074862
0.06671257861605966       0.13745314746076154      0                        -0.2077757336871122      0.01848623960199292      -0.08844390220391186     9299426.97345369
0                         0.2                      0                        0                        0                        0                        8975748.155893745
0.08115074711258075       0.07700578424093081      0                        -0.24964301533452102     -0.012023705332133003    -0.10934908028585062     8942194.663398447
0.10000000000000003       0                        0                        -0.3102281923762041      -0.056040825312149       -0.12785096135477517     8628589.147414068
0.11724013803094097       0.04367035699966612      0.045576971937899384     -0.26905870204301496     -0.025433213673554576    -0.1460466616963098      6959503.157496108
0.13949295220116398       0.10030905774791976      0.06407112597559515      -0.2787132284940164      3.3506432442573686E-4    -0.19055928265971211     6164877.336747611
0.05584343109192674       0.1435169652229572       0.09231915682873086      -0.08344430728279174     0.01092415426089907      -0.03379415620916556     4730216.6747040935
0                         0.1280305162290639       0.14137364323627463      0                        0                        0                        1801466.600386788
0                         0.19999999999999998      0.09999999999999996      0                        0                        0                        3963195.5975369047
0.0765571173036971        0.2                      0.06665627002188668      -0.15343328302880185     0.03770106188537133      -0.05861437495613463     5807065.663805334
0                         0                        0.19999999999999998      0                        0                        0                        677458.5601628578
0                         0.0664055553130332       0.1702446853536444       0                        0                        0                        955448.5344801316
0.09309800035178242       0                        0.14982247025459516      -0.06757661691387831     -0.014985821507765314    -0.06343744135325848     2273305.5530236117
0.0553112929793749        0.06875408607150482      0.13772637430537116      -0.046790845611158205    -0.004373117186107085    -0.027147099115015748    2674293.01430975
0.1134675301723076        0.062016733081179096     0.1103263925200883       -0.14619952840055725     -0.010077388099973153    -0.11789281579838669     4124491.3056848696
0.07536377715641507       0                        0.25035768197347597      0.05508915996247799      0.014657416650109148     -0.038278873236813456    2165567.638774412
0.05131589607021675       0.056547553427539        0.21723129979303354      0.011959009232526331     0.0016130428361582898    -0.019967616642293393    865141.5901286919
0                         0                        0.29999999999999993      0                        0                        0                        3941882.5738196736
0                         0.069820116466058        0.26456487075202656      0                        0                        0                        1988801.847313255
0                         0.132262840664003        0.2333923151158943       0                        0                        0                        1053930.0895444048
0.06552208149149405       0.1336870518050912       0.18316524965880907      -0.014946330860912424    0.001355662653566767     -0.03466843119746799     916981.4598189165
0                         0.2                      0.19999999999999998      0                        0                        0                        649121.5922249886
0                         0.06354529828711127      0.3359649098766224       0                        0                        0                        4462418.790632763
0                         0                        0.4                      0                        0                        0                        9103544.842066787
0.06542811180731078       0                        0.3317820662943475       0.13079969806465105      0.03627137315196026      -0.04346809947393831     5984582.878050477
0.060990526819920676      0.07680988696341015      0.2935206086133437       0.07865759858189342      0.00529791254453942      -0.03817179825156459     4100448.563955851
0                         0.12671560146972954      0.32420337116167225      0                        0                        0                        3903093.599474078
0.04178164418787142       0.1083814385900459       0.3593428871807146       0.09436949379765071      -0.002134033551563694    -0.03560055329245921     6965160.08311634
0                         0.1                      0.4                      0                        0                        0                        8336009.680311904
0.1526596312765799        0                        0.06986463551636049      -0.29278824518396        -0.038408814550770616    -0.20631936221580846     5699452.332311945
0.16464832176791983       0.06862928071740214      0.14664058491343998      -0.1269978967006278      -0.004976748064728239    -0.22950781768412537     2467706.5415806663
0.15594871772620922       0.058314913342474545     0                        -0.4710946219371629      -0.024166361783595852    -0.26005246428004125     8778260.886189703
0.09999999999999964       0.2                      0                        -0.31023954273535975     0.057483588754172095     -0.12693677562248318     8635976.801509252
0.11730601950519282       0.15520370998085925      0.08286170414428938      -0.20032217380276773     0.01968090219656512      -0.13130780086980612     5329009.032726446
0.15881523784473722       0.12617743712531773      0                        -0.4792975110245585      0.015838443650605546     -0.268820769432161       8781243.280731952
0.2                       0                        0                        -0.5982070409269157      -0.05730789552768039     -0.37431305420926        8562036.624744833
0.1136460682672949        0.05475443854946405      0.327173946375657        0.21094955341190197      0.017183920288165015     -0.12886006063410488     5829731.416059101
0.1482404684504397        0                        0.3157498420980729       0.25167938880560786      0.034516697117465196     -0.18998775707537782     5090796.964478352
0.10000000000000003       0                        0.4000000000000001       0.31031834471106906      0.05710585056433321      -0.1272359308717859      8668547.495724354
0.19844813865030592       0.05843981058929291      0.06694141870322076      -0.3880563467204173      -0.015936013161839496    -0.34910847503494935     5785416.742858615
0.22317084134460208       0.04775256603767471      0.13251116048034528      -0.21843422706894616     -0.01008558815750513     -0.41150223570095595     2959908.6980740814
0.20789823186277623       0                        0.1623287082791759       -0.11323625037794434     -0.010862801814949957    -0.3443040452451011      1763219.6905625265
0.14757874194999943       0                        0.22925037312583446      0.062192213608093655     0.008897936903421942     -0.17002203413053518     1433705.8101635808
0.09251920357176645       0.2                      0.15581583790339026      -0.05945232713613078     0.013487644027451113     -0.06178191208933474     2030400.6368347288
0.158536113689971         0.2                      0.07289181340237505      -0.29644419860375115     0.03786219173578819      -0.21988633745920746     5575642.898420238
0.12749411294129112       0.12014396510818023      0.13539280699702752      -0.11802613630171843     0.0041502434916228645    -0.14233362358409665     3003631.6991931405
0.11423789362765085       0.08253841335133319      0.21239787292023488      0.02006365285058086      7.330516519648281E-4     -0.11002156626914737     903048.6970095335
0.15264419327779846       0.04790602947927537      0.27366490038729097      0.16296419931408387      0.011687050784815101     -0.19963658664705075     3342147.472131755
0.20644114403525152       0                        0.2522978530573215       0.15617000252255833      0.01520087979570705      -0.34134679319222316     2345416.405002616
0.15701550552177576       0.16393287818084232      0.175782350313396        -0.054852351813214115    0.004847329371998081     -0.2017891161105521      1266181.0594157274
0.20092909774922382       0.1002264607945587       0.21851219246504516      0.05383668808068536      2.1729755546479366E-5    -0.33420765012068243     1062067.3852726165
0.06167731690774364       0.14419135286410242      0.2748712866693114       0.063480805844208        -0.008283633620690518    -0.03465843965971894     3301279.041810315
0                         0.2                      0.29999999999999993      0                        0                        0                        4000853.025752332
0.07617545456840134       0.2                      0.2555982861850867       0.06132220560164252      -0.01570369420228036     -0.03992417006969673     2362272.9546547914
0.1265949176304683        0.1418742115503881       0.2329355140597495       0.05962839158233923      -0.004217640143359286    -0.13443401453299136     1619219.9608933325
0.14908403725473676       0.2                      0.23159079762584672      0.06792733835089787      -0.009490993503183805    -0.17377051208598193     1525527.1738734639
0.08206059529000741       0.07871591266149397      0.4                      0.2534653316689886       0.011425385417954324     -0.1121408119058927      9234014.740058104
0.06654523823805363       0.2                      0.327991191072187        0.12896660133540055      -0.03554930821682044     -0.04413088737066169     5873332.699161033
0.0687638891535201        0.13798923912990493      0.4                      0.21319283162133515      -0.018971875108203896    -0.090575721493369       8983624.390266633
0.09173111448417287       0.12659875613446167      0.3267501588152261       0.167312376000718        -0.009368307720343206    -0.09071615894356701     5821882.766785515
0                         0.2                      0.4                      0                        0                        0                        8998283.05666906
0.25325279295869835       0                        0.07714332695120403      -0.4527845118090151      -0.03443507788237244     -0.528842678327181       5194844.652601806
0.20660257956117756       0.1318347267120111       0.06757410382141357      -0.4016533471031688      0.012469643207814797     -0.37611808180617184     5741064.557446411
0.22718317233456276       0.06802951323814062      0                        -0.6761776075177174      -0.01800461214753318     -0.47866092192090615     8517140.373611065
0.2000000000000002        0.2                      0                        -0.5981365323467718      0.05788172272675058      -0.3741015812170994      8566704.717989836
0.2581989229780183        0.1331868186680963       0                        -0.7635386638191288      0.01891804015563067      -0.595729324804454       8399009.63265862
0.28485209288210567       0.08899528102892751      0.03951990195143976      -0.6671123774341914      -0.004710077003156852    -0.6889577689379819      6672967.107493977
0.30000000000000004       0                        0                        -0.87879210468021        -0.05478023972496772     -0.762956049356941       8245177.502849653
0.15057601705568163       0.11891741527080307      0.3461967148837391       0.3253714175526498       -0.008260197536227141    -0.2210191301803945      6552098.7498909505
0.2166292527282382        0.0427601190008118       0.2975724390403458       0.3079665559473898       0.016137063023114132     -0.39507818209551193     4233456.317637348
0.15410238411153046       0.05861576407301508      0.4                      0.465773187828118        0.024403183717543988     -0.25535823032995186     8775057.186683673
0.2                       0                        0.3999999999999999       0.5981625668877165       0.05752792094968562      -0.37424369656689066     8568336.346454851
0.19694585750365326       0.08426205750439654      0.3316211988473252       0.3807050857471435       0.006028068544112335     -0.3458477260059913      5745523.160481219
0.2457314831789429        0                        0.3180079677540947       0.4219716564379062       0.03334939955012851      -0.4978176704334026      5015834.982752933
0.3187051328719249        0.04342188829356646      0.08299400660607457      -0.5373784733637769      -0.017937005258438006    -0.824422390784958       4805808.383451075
0.3169924624629301        0                        0.15280484389957025      -0.21416820570236425     -0.012830194414442797    -0.791184101257207       2037883.7673315704
0.2647219819408239        0.06255922699109859      0.09471017436751446      -0.40448778560733706     -0.010939274790187222    -0.5813484913114699      4445918.481121407
0.26017145110688417       0.2                      0.07798768487272763      -0.4613269029851092      0.03443691588861481      -0.5560101424398628      5145500.864876292
0.2578812744419119        0.15515523957492958      0.11560690486319385      -0.3152068782226769      0.013258142001739208     -0.5455892412056595      3602259.425389776
0.2915891404978641        0                        0.23093827905775136      0.1294589019193389       0.008563442814031041     -0.6708470373273777      1455247.8819661308
0.26053125369722957       0.05598469006357684      0.2181644465892216       0.06824962757466829      0.0022761480753634867    -0.5482981623501927      1016948.182922897
0.2095739920466677        0.2                      0.16122539502611996      -0.11740854744498615     0.0113220925965051       -0.3498407280917896      1809089.3903309342
0.20469641360486818       0.13721217275518244      0.14274877257595253      -0.16988270034495956     0.006360920817939776     -0.3486901194110079      2562068.3474492826
0.21065593313292333       0.2                      0.2545343330304807       0.16630686155456423      -0.015798548852316817    -0.3556357809186616      2441943.057826848
0.1836813994415308        0.14265006178350276      0.26478423705875076      0.17266929586435784      -0.008242945239330474    -0.2839903474227097      2917986.859371262
0.25658485547946225       0.13784940114756555      0.23371337266718306      0.12485288889955132      -0.003605442531799846    -0.5341982305281554      1566637.9431470118
0.15245669608516615       0.2                      0.3138238626408292       0.2546110416160933       -0.034017440070945905    -0.19983566441651218     5015357.942578734
0.15927552368665587       0.12613268067094816      0.4                      0.48054072653078533      -0.015405666498212667    -0.27001506208526976     8786449.451829167
0.09999999999999964       0.2                      0.4                      0.3104376741016441       -0.05645166082021942     -0.12774896218674678     8703087.10247282
0.3562335391561286        0                        0.07619780726137018      -0.6313343510671955      -0.033072549976240186    -1.0092090328917678      4993543.755147443
0.32834168650303025       0.06484782889660966      0                        -0.9570234637834415      -0.018881855460465644    -0.9101831408796529      8137409.720490731
0.3331728520928924        0.12723901063311355      0.060208824759749924     -0.6715281558059405      0.010464403727817071     -0.9072498383578302      5688636.930322045
0.2999999999999998        0.2                      0                        -0.8787128466327233      0.05524327942113213      -0.7627374930579317      8242123.172196197
0.36265813978773154       0.13317738979697955      0                        -1.0494146738800334      0.017909925264855738     -1.0886555136205496      8009864.6045433665
0.3958841905063723        0.05870118740704258      0.07064378242239094      -0.7287929939359539      -0.01394415899129065     -1.2450008368446825      5115236.126389737
0.4000000000000001        0                        0                        -1.1475179348844817      -0.05232912884475765     -1.289035087664467       7874820.910143613
0.30270901776808246       0.061851237809881325     0.3249617393814264       0.5471565716871828       0.013045187891035372     -0.7535999291475463      5165933.271015415
0.2346204709262132        0.06846695378182809      0.4                      0.6972572602170268       0.017909140423519213     -0.5055574758897822      8491739.81748103
0.21396769519687595       0.14954508543154205      0.35275833398329337      0.4817373597338798       -0.021873549771117606    -0.40695722872452406     6560689.294933666
0.30000000000000004       0                        0.4                      0.878732850634396        0.05489428813337265      -0.7629161875361054      8246675.327588198
0.3436679259650099        0                        0.31540830416145504      0.5684393703789777       0.031030108240077573     -0.940142772240447       4692070.160131109
0.3593706855052652        0.2                      0.07664902571134254      -0.6341180359005029      0.033128174363429366     -1.0257706499735233      4971007.543373148
0.33725152316862933       0.06259133224120512      0.23682412214980078      0.17733278078975145      0.0036923183694710653    -0.9024330304191822      1624504.7104036568
0.37787535577179665       0.04702852641150121      0.16709088991959234      -0.17643046134096527     -0.004606867357361293    -1.1189364509439945      1460628.7887783644
0.42028365753083413       0                        0.1559615802134774       -0.2604586218843784      -0.011433522654222704    -1.3624863035164645      1834496.6543914743
0.38640695469606534       0                        0.22895958717711698      0.15831950682598342      0.007617533338909076     -1.1579032204114308      1332041.7011119216
0.31796372499201486       0.2                      0.1531880683442438       -0.21296867313826268     0.01284537437543917      -0.7956669269146511      2022217.1576113142
0.28667714580568576       0.15066659465810622      0.17934709362454587      -0.085099522143514       0.0029555258284533624    -0.6583538827995845      1076240.681213101
0.3377086335512052        0.14946354724302255      0.12008551239459196      -0.38623391918074934     0.010785566617210258     -0.9100926638554776      3286816.059839151
0.3744785350276014        0.05807041497931213      0.3131097795399154       0.6042601711073561       0.012513084536036386     -1.1167714525157604      4530728.465185555
0.28984936581193316       0.2                      0.2321202685323725       0.13372540613403378      -0.0089048766178071      -0.6629736090736086      1499261.8007411682
0.318903155954403         0.14069434776479767      0.24514868060405173      0.20626659274385128      -0.005056736863941549    -0.8114669785244524      1952463.262150404
0.2500000442510807        0.2                      0.32110791887867063      0.4406937954044159       -0.03423039582956543     -0.515302263085727       5132410.309525062
0.2648902451792111        0.13812346200436956      0.4                      0.7822968573348975       -0.02143699944474877     -0.6223317968261276      8374404.75415886
0.25559039596083677       0.10157754483968778      0.2932438374601102       0.3458414515918784       -4.430247399092585E-4    -0.5429306601574684      3971313.181215631
0.2000000000000002        0.2                      0.4                      0.5982098285177155       -0.05766560942978937     -0.37415198629009366     8568547.757533768
0.45882514283608966       0                        0.08141924665908407      -0.7635140141430589      -0.03019829383543338     -1.6271374498473097      4558267.084435253
0.45719371230835404       0.052286052378101536     0.11427707691591693      -0.5492450496814564      -0.010424032768903748    -1.617471624464085       3332218.956071697
0.4302666351560495        0.06718553996906794      0                        -1.2271921961667314      -0.01683200116366998     -1.4859062341281792      7758224.542426497
0.42509149965614806       0.13127511453174193      0.06679309630824722      -0.8016772934251232      0.010890533306031234     -1.4246054523334173      5193437.865897252
0.3999999999999999        0.2                      0                        -1.1474209716847692      0.052660883711240135     -1.2888604230190184      7870712.490595789
0.463907363120043         0.13361801641567145      0                        -1.3134688205766845      0.01723584136765274      -1.7055461507075347      7633209.057621409
0.47409748985605227       0.0564068116710254       0.04847129892406422      -1.0088316348685944      -0.016653237675614614    -1.752503800521871       5764291.536268522
0.5000000000000001        0                        0                        -1.4037472361439625      -0.0499088032425875      -1.9463866250409327      7497892.922456114
0.3083055417704769        0.13616419462280105      0.3342313610396527       0.5988688515579869       -0.013392266493538104    -0.7831607912463993      5529879.410380838
0.33493067947937727       0.06635254216156743      0.4                      0.9749199997842113       0.01807993372920933      -0.9433108709001629      8108067.321749227
0.4000000000000001        0                        0.4                      1.1474334166363003       0.05231020171643312      -1.2890227115338055      7867759.866007946
0.5222814261131113        0                        0.16237216969451337      -0.2711741854222382      -0.009330734984084947    -2.0624577549762964      1537156.686549198
0.48743659190806987       0.0523319018860498       0.1723344823257669       -0.18741690641498074     -0.003355073191610061    -1.8171713652462038      1230463.0375880997
0.4440912212752304        0                        0.31358455387518713      0.709525709558857        0.029053345171850656     -1.5282314881437515      4405434.962962024
0.48547060977762896       0                        0.23372282818556306      0.22748791153997894      0.00838206476210736      -1.7940479199775827      1434333.3871616574
0.4624994868874186        0.2                      0.08102452040810633      -0.7715502621774862      0.030368045769451634     -1.6518204533668415      4568620.467198153
0.42628854660094473       0.1416753106385858       0.1311587521709237       -0.41325856878610173     0.007466598005646894     -1.4142575776332253      2734065.346390125
0.4217634558275556        0.2                      0.1574079485261195       -0.2526226919200791      0.011072473926472757     -1.3713587684076889      1780041.748278039
0.37084005667119585       0.14173788898165693      0.20756917003338787      0.039862401787111056     -8.593850701325467E-4    -1.0794450690647854      720314.4945751284
0.4812536607878168        0.17290216784558676      0.1314317269759976       -0.45964369287800966     0.012595876690732368     -1.774652898002813       2658198.6120365676
0.42457217357509136       0.07041467014565031      0.24454918682414128      0.26622219543787895      0.0033565569742162312    -1.401081235919996       1845499.4656049034
0.5013135720570678        0.05593050469476632      0.2707020637988722       0.4919468331874005       0.007676538980491662     -1.9221681663850965      2708924.729189419
0.43420758588468944       0.05807827918305495      0.3376945218258704       0.8451962338993098       0.014742640209219037     -1.482882409787816       5339020.539522147
0.38601495415108716       0.2                      0.23147961824595278      0.1720664869447382       -0.008353144293594978    -1.15568232048572        1420189.8656985983
0.438090755992656         0.1447484156043536       0.25791142281143214      0.35629722580051415      -0.006758878722570406    -1.4872376949263293      2322863.727538388
0.3436191398253556        0.2                      0.31635541787906823      0.573207921458322        -0.03144656743879559     -0.9400454491109665      4731060.660999196
0.36844165388719774       0.11554039322714768      0.27728261199243587      0.4054904745372811       -0.003259551939064658    -1.0760969473746962      3134269.5420464976
0.40858623641694836       0.137248936551536        0.3328910301707212       0.7711498933146168       -0.013054311242714167    -1.3223622533558388      5223640.51015182
0.36329547904037157       0.13158982614022105      0.4                      1.0511755370909195       -0.017014886000563577    -1.0922712355692956      8012631.13793426
0.2999999999999998        0.2                      0.4                      0.8788254975505126       -0.05511719702826783     -0.7628099021930376      8244245.532656103
0.5466762326493053        0.054325010996364435     0.08183180836497132      -0.8909233048694215      -0.013179224367602646    -2.2741684816219094      4350829.3601048775
0.562438669896532         0                        0.08194878836950348      -0.9121612853515133      -0.028608637507581445    -2.3890301055808014      4310241.785982981
0.5309984910081872        0.06637951579345606      0                        -1.4814475407066354      -0.016450894824198977    -2.186689372797432       7382013.502422258
0.5131429213925636        0.11290660630472171      0.04502613849782516      -1.1081289287098375      0.005025600160844499     -2.034461485502777       5781097.2109232675
0.5                       0.2                      0                        -1.403664386892985       0.05010593060537099      -1.9462067758014314      7496944.9212592505
0.5650336129868427        0.13330495074284296      0                        -1.5644093008406037      0.016211258747056066     -2.451939279724904       7254647.613337003
0.5993400248925107        0.10839194686760407      0.07367855511155331      -1.0332068226900966      0.0025121239250103567    -2.7061957364611304      4513937.041834855
0.6000000000000001        0                        0                        -1.6475053518287004      -0.047514717056563835    -2.7285183771436574      7132883.367332686
0.43335399948228215       0.06627942590497941      0.4                      1.2351721965633493       0.01723603140530686      -1.505373585041679       7745400.929622966
0.49860380499658075       0.0449226225194308       0.34749231496435706      1.0268722954984644       0.020144577595551334     -1.9221720056005114      5541586.026274476
0.5000000000000001        0                        0.4                      1.4036452581961891       0.04978145180085946      -1.9463659334769872      7501089.013576507
0.6600436716930542        0                        0.07749675476411233      -1.0878681845385443      -0.028328695847775868    -3.226705093377617       4219903.064825772
0.5626134871825109        0.2                      0.08313295975174412      -0.9030569664388558      0.02833872461248695      -2.389887952752969       4267009.142106175
0.5222507062520523        0.14235140857230305      0.09969108986229278      -0.7252703506473286      0.010525773114060331     -2.082897961995667       3748786.844558758
0.5696350039687177        0.04627686124409236      0.18999911688974222      -0.0779134754692288      -0.0013694000315895916   -2.438904617363781       760771.4612673401
0.6319976943336068        0.043696998977814795     0.11927516613190489      -0.6891997096050667      -0.010699145852219712    -2.9734069928530142      2848671.4345267434
0.6177409790010516        0                        0.1665374104272569       -0.2795208791372797      -0.007958403325492566    -2.834745265908944       1343635.1288150435
0.5844866314070697        0                        0.2402656252102598       0.3205960855884612       0.009473981158733215     -2.553648909377567       1578483.4957144794
0.5474452550934478        0                        0.31387658546324104      0.858834596948775        0.027635744623953414     -2.269363203267795       4196197.799148919
0.5657664119824369        0.0558421306006122       0.32633034417200474      0.9823433164961839       0.013310188825863715     -2.4277964068044104      4595893.990103278
0.5228811145522897        0.2                      0.1642402634419583       -0.25788070462101836     0.008793382298079463     -2.0666392376022573      1477396.4136723096
0.4952301919282584        0.15073571578652747      0.1966619781362219       -0.02293579833481924     3.84793988917116E-4      -1.871268424804299       670265.8658206874
0.5713498432392929        0.1544586096037978       0.17818506007782736      -0.1702539127682522      0.0027896889211661644    -2.4530528279726327      1026864.5903408629
0.485952483864072         0.2                      0.23595855113319436      0.242895272533032        -0.009145343944268188    -1.7974877202719983      1511459.2871480428
0.4456046597439716        0.2                      0.31485154055960296      0.719867168514962        -0.029616408322928774    -1.538333918446085       4449219.144240179
0.5315887639005668        0.1525390365010179       0.2749087808778876       0.5494904212111771       -0.009833254498070147    -2.1468044118160687      2817957.03807832
0.4660041893973443        0.13459362988215257      0.4                      1.3188503678202401       -0.01780399219097945     -1.7196769632999949      7626646.463735901
0.49573899250868014       0.10490377591387982      0.3207902060076522       0.8349460081738787       -0.0016340751677260128   -1.8963580442505494      4559005.278124499
0.3999999999999999        0.2                      0.4                      1.1475333673822126       -0.05266117032206428     -1.2888887607675394      7875186.164135397
0.6471458863187332        0.06712147804349297      0.05904903147936305      -1.2331195799844965      -0.01079579722860018     -3.1257182308817213      4908483.313313964
0.6323395157410028        0.06664598688535693      0                        -1.7245491451530772      -0.01560260057322432     -3.017434243973546       7019845.052565917
0.5999999999999999        0.2                      0                        -1.647434044949925       0.04763919061902475      -2.7283571135901474      7128621.461145047
0.6254441226569043        0.1636532482582616       0.04644786612827932      -1.305647054876179       0.022978979022686953     -2.934256897465903       5411339.201678522
0.6632594578999076        0.2                      0.08457010692061831      -1.0286073039756172      0.026530315862461348     -3.2540618037433826      3964065.886002831
0.6245256068711609        0.15011156874128734      0.12109385631365144      -0.6667063784715119      0.009227487310454948     -2.9081851447367346      2796633.421093781
0.6655764592660022        0.13318851074970728      0                        -1.8015275499516956      0.015425215044784031     -3.316110523535557       6916925.720092364
0.7013661492839329        0.07098960406006845      0.06361071387969779      -1.2771400942835074      -0.009023538927088952    -3.628279307599683       4586992.8454809245
0.7000000000000002        0                        0                        -1.879676486687783       -0.04579435472529431     -3.628436321572455       6835505.047412343
0.533168395599046         0.06656126928341473      0.4                      1.4867715557057435       0.01621251909312694      -2.203143197348843       7367698.841194107
0.6000000000000001        0                        0.4                      1.6474730084278009       0.047331796226567927     -2.728537104267065       7140921.278979463
0.6720060756419356        0.049317376549393305     0.19196435985225668      -0.07205082865398603     -0.0010562111821001833   -3.3300189635903767      794798.5695209447
0.703404756749062         0                        0.15485525367696612      -0.4202269828482405      -0.010136863432886846    -3.6214629231229836      1584608.1830426264
0.7263963952178709        0.05045331136123468      0.11893984270607455      -0.7768210347455079      -0.008887204151212092    -3.8587379692016186      2561972.9154067403
0.7608328065525358        0                        0.0870771024171062       -1.1264083170223882      -0.024557308357857615    -4.202489937533209       3436118.775005012
0.7695375367626099        0                        0.15849556227287415      -0.41276737200572056     -0.008518494351112052    -4.28643287323171        1391929.5137353265
0.7664082090191414        0.0671967689740279       0.1673701337325947       -0.3240884535105184      -0.0022842749371528716   -4.262914215689249       1297124.1502393554
0.74844619899527          0                        0.19679577000197693      -0.031252981344720245    -8.391080854118286E-4    -4.068292087501731       1056748.9454459127
0.6902079977557719        0.13682067850324192      0.07006619911340728      -1.199659089300007       0.010833874490702798     -3.519358814993116       4384452.3517894745
0.7043242813793018        0.2                      0.1574698201178255       -0.39630701446367245     0.009291174022466323     -3.6301188357967487      1518367.275738955
0.6213831208925478        0.2                      0.16861508124845717      -0.2633703445996352      0.007290362738263916     -2.8660909278581985      1289321.856838375
0.6673445283743646        0.15083642775764336      0.20927319676450884      0.08271810016688658      -0.0012483170735202223   -3.2866882581394785      797006.5617778479
0.7526253930094818        0.12336769277180401      0.1561145154844822       -0.43048500092415104     0.001961558690416393     -4.121630075081767       1444473.92280308
0.6969339751386101        0.1136276217587048       0.1756014762820826       -0.2255801776819825      6.32370660748184E-4      -3.5688064614973185      1075458.3494498534
0.750129801757349         0.2                      0.19857196365330482      -0.0139060208130679      1.3528913949892012E-4    -4.085328521891674       1052725.2024621197
0.7694544081468081        0.2                      0.1599792563215232       -0.3976126043874832      0.007828418134899375     -4.285464890113026       1359766.1714262418
0.6871094437463914        0                        0.2417702732963372       0.3815578835264936       0.009223830106974359     -3.4652008451109713      1525976.345118688
0.6349548288963824        0.04738334918239918      0.2621841480322328       0.5325032785756687       0.0074580951743122405    -2.9971392821408225      2223461.6595583563
0.6495492260268514        0                        0.31791440657707054      1.0324554684015943       0.027142862855730438     -3.1301969904335785      4091098.146036017
0.6281690368650863        0.053014925258021456     0.34141155095632636      1.2058534052116945       0.015349385487093933     -2.956203792024635       4970804.498464276
0.5869126560978959        0.2                      0.24208304657284813      0.33638947314560763      -0.010211485242083795    -2.5737743866560967      1647366.7282218514
0.625832253219194         0.15336283129158446      0.26330537041563956      0.5354969785323492       -0.008107826418112843    -2.9167311934255284      2275856.6953600096
0.549163552475412         0.2                      0.3177080044697423       0.8905337705908228       -0.028883013797842264    -2.2837057289143208      4330268.035339944
0.5194150621282392        0.15557145933958866      0.35535088353164873      1.1227625646462331       -0.021546073145205295    -2.077470870479679       5774699.0900315875
0.5657972493948702        0.13299201142845804      0.4                      1.5663135306815834       -0.016229978896343197    -2.4580683669666112      7256376.874433467
0.5968995101013196        0.11038025330086859      0.31867307187523275      0.9666886113363835       -0.0031301290412023845   -2.6834229539797856      4247496.935677888
0.5                       0.2                      0.4                      1.4037931577366105       -0.05022164426610085     -1.9462102642428756      7498379.7065474205
0.7329391363082783        0.06646380408453675      0                        -1.9548272769950616      -0.015379646041858099    -3.9599821926278485      6785546.841104423
0.7713383652594373        0.14442519747361454      0.07430697045701132      -1.2709497384424688      0.011978057110024126     -4.323005468883552       3904700.9464454507
0.7                       0.2                      0                        -1.8794928445940056      0.045827847268880166     -3.628286685352145       6846049.813208191
0.7603286956488511        0.2                      0.08740023308189748      -1.1223326339522834      0.024239339486645778     -4.197130236177038       3413129.315422542
0.7656464238448497        0.1329662350290672       0                        -2.0289095851509833      0.015028274335706167     -4.291005400598122       6798488.0366061535
0.7689016672258914        0.07846926411680899      0.06467483671696049      -1.367162525873204       -0.0064140682293728395   -4.301982877581877       4272861.714354249
0.7999999999999999        0                        0                        -2.1067643963122085      -0.04591638634647322     -4.640731361766499       6916008.251408769
0.6331033737629519        0.06656492684830484      0.4                      1.7262720959139022       0.015415874958768514     -3.02413792465267        7013926.472621874
0.7000000000000002        0                        0.4                      1.879631560197751        0.045469807366312794     -3.628442409135279       6833136.908398303
0.815526173722563         0.041788948192244        0.09002478840774761      -1.1561299136763106      -0.012632314720798982    -4.788526842937669       3001586.125737814
0.8601801140060028        0                        0.06895538667718863      -1.4440573784025         -0.025392189727147903    -5.283837996638398       4062491.816865454
0.7488593644386081        0.06513218213079128      0.23319069914727153      0.3242874815846833       0.0021820162649150415    -4.082151132743945       1292457.9208592235
0.764877405751561         0                        0.2438412603215332       0.43421191476303705      0.008654674140342532     -4.237921668940719       1430614.2363818053
0.8053278629132535        0                        0.20135943141033802      0.013807288245917723     -7.777244983834194E-5    -4.668483045666745       1687290.3005762778
0.8378421342671745        0                        0.13706238219096664      -0.6603521682658348      -0.008951377758367308    -5.025033114582805       1241996.9305860924
0.7527017673491196        0                        0.31547035455852396      1.142298852480021        0.02495101346576095      -4.119895317181858       3577318.296747031
0.8636694484979568        0.0680237499682877       0.1497677744917389       -0.5288924348876697      -0.0015899213753725373   -5.32304966313691        1103127.9359920858
0.8376686670052269        0.2                      0.137781588854801        -0.6516137601271365      0.008722141475917588     -5.022162409838891       1203784.233683234
0.8070478547944667        0.2                      0.20299256365588758      0.030370063114409936     -8.512743902920666E-4    -4.686832536249852       1706579.3196364404
0.8505916510739442        0.147850242497492        0.18912066624181123      -0.11279155814649618     3.7509069720925996E-4    -5.176469330079232       2075758.5083078735
0.7648347443507126        0.13150911022575687      0.24170809330600995      0.41380551162194956      -0.002848826052919935    -4.246706481647838       1412056.6978580528
0.6891981467064672        0.2                      0.24473148159940417      0.4097110099358651       -0.010245737758751716    -3.485097940159454       1605025.7235007482
0.7674534778546627        0.2                      0.245231324921425        0.4492214123141178       -0.00937316535379582     -4.264586962265108       1455007.187493605
0.6955436381356045        0.07462929401010432      0.33082211965447594      1.21586039733689         0.00728434431669475      -3.57118559530528        4400122.044233371
0.6345130224621418        0.1480194374227481       0.348965797369363        1.282177850901491        -0.0169742266354555      -3.0143565988052923      5222234.087379819
0.6533533041607278        0.2                      0.3224838007346623       1.0783286772471574       -0.028602800237484346    -3.165641460564806       4238242.3956696
0.6785668439944605        0.10522681472486606      0.2692660513725982       0.6276257982500462       -0.0010236405079733569   -3.3988430826978506      2355880.6801953465
0.7231256850350121        0.13788349443515563      0.31435100867072285      1.09591248573825         -0.009912088972383102    -3.833404215883236       3707569.824446812
0.6666942195451452        0.13369005268667328      0.4                      1.8040825443482595       -0.015891194445205637    -3.3263495082138244      6908601.839924169
0.5999999999999999        0.2                      0.4                      1.6475429129438324       -0.0478470503654225      -2.7283765190974663      7129459.225447861
0.8328974943691088        0.06637830831441384      0                        -2.1839851328530737      -0.015439106855234502    -5.012119251347713       7078807.862625078
0.8244464558926627        0.11132675689098864      0.04806427526034973      -1.6303702023685498      0.003520780259889328     -4.900319830898251       4912937.763877286
0.8566542624314796        0.2                      0.07257425103066498      -1.397415539879492       0.024164573313068708     -5.242018126955345       3778870.697633578
0.8727165154831668        0.1533587778529764       0.10777503475162563      -1.0063934886240442      0.006688015450884729     -5.428941210982175       2019637.5553557032
0.7999999999999996        0.2                      0                        -2.1066471704801053      0.04613894339092907      -4.640371607850297       6913129.319915387
0.8662845482865928        0.13322247184238886      0                        -2.2645763066523688      0.015257543575267504     -5.3939449415411165      7226815.367107414
0.9000000000000002        0                        0                        -2.34605631934674        -0.04580754577332879     -5.78656272833758        7362896.805593689
0.7332483221210317        0.06675985694815667      0.4                      1.9555766861754678       0.014935475817775795     -3.963127805698524       6789660.131394094
0.8314790856592756        0                        0.2665184546194389       0.6962014797484433       0.010214875883414439     -4.95309494229525        1304743.1429078302
0.7783295896325639        0.06094647595393448      0.3364268130802234       1.3920920761623927       0.011277506969230076     -4.3990549102876875      4304337.933614706
0.7999999999999999        0                        0.4                      2.1064738016970845       0.045659631457887255     -4.640639393350845       6896112.497400168
0.8917897246139261        0.09630178468045524      0.056162015101450385     -1.6427200130962587      -0.0012024028442465396   -5.675958494925271       4742900.522283961
0.9292893218813453        0                        0.12928932188134523      -0.7660001862357856      9.885982415001928E-5     -6.09824619718035        1690290.5310455249
0.9292893217870578        0.05714285702472736      0.12928932197563278      -0.7678665817313137      -0.0021185169679752832   -6.111137821008229       1795152.2154903412
0.9381367932007664        0                        0.0618599495624689       -1.6429889505925859      -0.026208443223793784    -6.246559741815156       4908034.205106227
0.92928932131562          0.14285714214836406      0.12928932244707048      -0.766428738470236       0.0015021466032662351    -6.1091677804022595      1903817.5615683491
0.9292893218813453        0.2                      0.12928932188134523      -0.7685178913125502      -0.0017213930908069237   -6.096852436995209       1775925.4437226148
0.8500073351460471        0.06800228601785316      0.2511169289080948       0.5370093137563289       0.0014994469292299816    -5.169254229450643       1279691.82183122
0.9                       0                        0.2                      -5.106583447512368E-4    -4.7317855317731145E-4   -5.721855816381912       2273895.288378617
0.8493776546984556        0                        0.3293560516073466       1.4102588018924764       0.024954238521042917     -5.159795860663835       3851380.5474382816
0.8686660114770312        0.05862746148576451      0.3213858343000502       1.3433987322351089       0.00860596510568701      -5.390841301078198       3575211.6359125148
0.9000000000000002        0.09999999999999999      0.2                      1.4817386520583464E-4    -2.0791488798883756E-4   -5.727364329947338       1819167.9842661328
0.9                       0.2                      0.2                      4.7590464753162037E-4    -3.3398296620347213E-4   -5.720971173448588       2326609.1014708388
0.8631913797414432        0.1324439455277868       0.2640584184933176       0.6819301971283571       -0.0027825471584937635   -5.317874841797178       845227.4219131055
0.8362737390290441        0.2                      0.26790294586103525      0.712685236554803        -0.01019017056888465     -5.007162510587231       1301081.7112738902
0.8054721047163016        0.10319668813720215      0.2872480359728099       0.9041025024924567       -6.603558490647835E-4    -4.680657033962957       2232585.344255967
0.7564412449117577        0.2                      0.3144977414044592       1.137059229246155        -0.025166508836342246    -4.15771352588544        3508793.589117013
0.817246953837035         0.14268371227246168      0.34913666781378405      1.587605831637888        -0.014046465221753162    -4.818112150827464       4744537.328009092
0.7666412980338699        0.13333904960079046      0.4                      2.031344671982237        -0.015609763685304858    -4.3013973522547655      6808534.894986039
0.7                       0.2                      0.4                      1.8797222187074694       -0.04608235376858561     -3.628263345195407       6838990.2266219705
0.959204448888795         0.07773954549089336      0.057002037021430654     -1.7380305458579142      -0.006536493325471834    -6.5438384436745185      5076318.585481214
0.9327705007824476        0.06645397160776427      0                        -2.4256895555599516      -0.014340658649065339    -6.214939522690806       6961222.075929074
0.9374583081068052        0.2                      0.06284570304068438      -1.6283014577546444      0.025419693751746665     -6.237339441190282       4890762.698548951
0.8999999999999997        0.20000000000000004      0                        -2.3456735399262185      0.04590828528612399      -5.78611669510189        7408721.344108622
0.9663073329770852        0.1331706877718573       0                        -2.4996566642034383      0.013759242642355332     -6.660100167518215       6286950.881601527
1.0000000000000002        0                        0                        -2.563094090518081       -0.03975931484122149     -7.1114489248040025      5484512.527365543
1                         0                        0.1                      -1.224256962740329       -0.02806972739370417     -7.08992614780317        4906061.04508208
0.8332131100451523        0.06678477816378173      0.4                      2.1846132169405754       0.014827692810696983     -5.015726942247776       7078652.804812563
0.9292893218813453        0                        0.27071067811865474      0.7675671215308287       -0.0012331677100066373   -6.096001300953731       1611392.2529777738
0.9000000000000002        0                        0.4                      2.3457533655243687       0.04521758915421083      -5.786463864072053       7324974.553717976
1.0223560867821726        0.05189744280103167      0.06137200397663047      -1.7728871191895577      -0.014771103384111221    -7.409149261168626       4204336.059632936
1                         0.09999999999999999      0.10000000000000002      -1.2211020752520532      -6.998700657692822E-4    -7.097457158936759       4849311.018883894
0.9780461318520088        0.14750635445110882      0.06073390757454611      -1.7162302375221155      0.013390152708603338     -6.7976970691639345      4791040.498107891
1                         0.2                      0.1                      -1.2207811389010823      0.027814777508968547     -7.089935904637891       4841662.982003947
0.9292893219756329        0.05714285702472735      0.2707106782129423       0.7663405026103921       0.0014111483236166726    -6.111325512607147       1756375.5280654659
0.9380134162661155        0                        0.3392253016287324       1.6562092454870507       0.025658885567126696     -6.244894046693944       4964746.381593679
0.9026568041806939        0.09964584091273795      0.352888396044032        1.7709324632557537       -2.2154280763446536E-4   -5.81333003758947        5191608.76849
0.9292893224470705        0.14285714214836406      0.27071067868438         0.7674804670645993       -0.0020466473913058427   -6.109890077606495       1872167.2075758316
0.9292893218813453        0.2                      0.27071067811865474      0.7665074401686875       -2.9637467799354533E-4   -6.0980908944385135      1706736.9325377059
0.8585405385988456        0.2                      0.3362586620285575       1.5023359342607008       -0.027236969075317533    -5.266091423088887       4296373.426164773
0.8667211241789471        0.133469335598394        0.4                      2.2654578723975045       -0.015780115982112798    -5.398887415989024       7261948.493167172
0.7999999999999996        0.2                      0.4                      2.106608955320366        -0.046299264529533       -4.640611320155068       6924598.771885726
1.062119701631426         0                        0.05936225754057478      -1.8542720469664362      -0.02885507209175946     -7.94878420370489        4074719.306093732
1.0327669196453895        0.06643423522737261      0                        -2.6209836304472125      -0.01286376541688101     -7.568670936004893       5053897.949287207
1.0419518440227562        0.12069686225453277      0.057080249826627266     -1.8583064252645307      0.005838357234437571     -7.679952844476171       4183841.7416265486
0.9999999999999996        0.2                      0                        -2.5627436456200297      0.038548807132621384     -7.111716364310063       5397785.010271134
1.0664335634669808        0.13325423662771024      0                        -2.676019963725916       0.011817384792248144     -8.031081784084607       4883815.370795602
1.1                       0                        0                        -2.728956588089265       -0.03400737552448058     -8.489388059733864       4915470.493584921
1.0707106780243671        0.05714285702472735      0.12928932178705774      -0.9453750814254459      -0.007511813664733083    -8.064307494045542       2523310.4971509343
1.0707106781186548        0                        0.12928932188134518      -0.9432711979333428      -0.01682030222946349     -8.05794108969045        2577764.552027296
0.9655839541066737        0.08771822029870396      0.35210962794388007      1.8671272661830405       0.0031110469151681202    -6.63394407070456        5245828.764894965
0.9333212984292385        0.06684685643857545      0.4                      2.4266834268688853       0.013650849252050911     -6.221941224683669       6953000.170911309
1                         0                        0.30000000000000004      1.223782335039019        0.02687800862179571      -7.089294841757542       4900631.544174177
1.0000000000000002        0                        0.4                      2.5629210636101702       0.0390499498734842       -7.110933259205602       5489042.451312943
1.06114802139691          0.2                      0.06102981314607785      -1.829463054984369       0.028013509818350282     -7.934072327609013       3931069.4751577717
1.1045427265506194        0.10999892977489335      0.044097608428077285     -2.1244689917946435      0.0023555161971419098    -8.546151271486508       4262804.931708007
1.0707106775529296        0.14285714214836406      0.12928932131562007      -0.9449594660512964      0.0063212782737096926    -8.064748446177784       2539225.358898843
1.0707106781186548        0.19999999999999998      0.12928932188134518      -0.9431451308253229      0.015484558787801233     -8.05739354520961        2542539.293084873
1.1361395368223697        0.1366373004779103       0.13115848002823438      -0.9549704488906225      0.003779569955525585     -8.970880356925248       1811404.5761285783
1.1513500430201318        0.0719206870026878       0.1332035433988552       -0.9349730621189866      -0.0038415406370092605   -9.187917534055844       1749467.8640464728
1.1                       0.09999999999999999      0.2                      -9.791951277857964E-6    -7.032243667926124E-4    -8.468537058616864       538828.7856811432
1.0206489506409164        0.05198992581835923      0.33851261824017326      1.7688057469829852       0.01373010286968463      -7.385560886614716       4203087.887921958
1                         0.09999999999999999      0.3                      1.2200182812648317       -2.261006920972943E-4    -7.097043627797633       4888615.489987587
0.9667472941775772        0.133408160975516        0.4                      2.500899849187156        -0.014475818785684602    -6.66593355917363        6245770.4142766325
0.9828017801571491        0.1482741867967774       0.3380556795577673       1.707445285133627        -0.014568356498251467    -6.863239067264076       4727907.638124761
0.9378803452660853        0.2                      0.3406424442421633       1.67395106086074         -0.02717018011966636     -6.244884700232249       4967366.783620371
1                         0.2                      0.30000000000000004      1.2207416749939368       -0.028791233635494067    -7.0901676631438795      4852010.369787666
0.8999999999999997        0.20000000000000004      0.4000000000000001       2.3459575009667497       -0.04650263920124246     -5.7859861095226846      7416821.0912847575
1.1636908297857695        0                        0.1321046625155344       -0.9565867845856286      -0.012246320456873412    -9.357157672113297       1833487.918524364
1.1414686130157683        0                        0.06374943686337611      -1.897073748664823       -0.024095172572175163    -9.05317191632872        3759245.5596038285
1.1282194538611736        0.06277051384268262      0.07515854451473458      -1.722312829365588       -0.008836182989265053    -8.868630335456734       3476870.3649727474
1.1329858863986486        0.06659319520494311      0                        -2.7849360714114377      -0.011602199150328004    -8.957550114034033       4935616.952447568
1.0999999999999996        0.2                      0                        -2.728947684582654       0.03354050481717174      -8.488612538626937       4943888.962126683
1.166334884104115         0.1332405361208004       0                        -2.8398245624233622      0.010361917685789158     -9.432778253922404       4916711.681546651
1.1913833898746198        0.0525168037485529       0.051018167354841895     -2.1392421707425573      -0.012193771484184381    -9.780288905439505       3698666.493312082
1.2000000000000002        0                        0                        -2.893802264074533       -0.03271772922617963     -9.914913869225428       4853762.551873435
1.0707106782129423        0.057142857024727337     0.27071067802436727      0.9455866452324526       0.006476704783401527     -8.06463766182972        2553413.3724526158
1.0467484611350633        0.13282254498207918      0.33777305307512384      1.795849652630117        -0.01018685018194587     -7.744184515572412       4082312.5907124663
1.1                       0                        0.2                      5.032519062779176E-4     -0.0010822045586240518   -8.460425229338627       642221.3413158776
1.1329055136584332        0.04989958597371247      0.20063753430530598      0.008743303173152693     -6.157549377850842E-4    -8.924795799218545       301385.7169933705
1.0332697830106399        0.0666917784958867       0.4                      2.6216805998623167       0.011970194933373231     -7.575497415060771       5045627.963724521
1.0707106781186546        0                        0.27071067811865474      0.9422039600051856       0.015528028670000273     -8.057182400193733       2325307.7159415516
1.062540694968763         0                        0.33715544749433657      1.8074183209307682       0.027403856595043644     -7.953707572293819       4039993.6958244788
1.1389986758662198        0.06357552239963407      0.3108458114435243       1.5390098886092398       0.006375794091360882     -9.018323398771738       3130415.047516243
1.1                       0                        0.4                      2.7285649398391905       0.03304737619627292      -8.489211764397412       4915701.99141629
1.1928628997788129        0                        0.19762266240115328      -0.03431182479346889     -0.0012451442204864853   -9.777863358506009       626572.0908289932
1.151093379765137         0.2                      0.07107423255673222      -1.8043231759321225      0.02159570770663793      -9.18768757268212        3552523.2329859505
1.1687274724712622        0.2                      0.13431860302121565      -0.9278214964202074      0.010255050674496221     -9.42934210350943        1741977.8965283048
1.1915446739603988        0.14087154079350772      0.07686059589081333      -1.7659519499091871      0.0075876548104336335    -9.777047439816137       3096858.2760999505
1.1906220096188351        0.07208427883842447      0.19171467273146278      -0.11865755349006454     -0.0012210613970842091   -9.752701108896646       573158.1085916281
1.2150316180633784        0.0694642747069982       0.13313300957510585      -0.9704319821670961      -0.004114985731199265    -10.114273046589707      1705532.8740874338
1.1                       0.2                      0.2                      2.261254810920098E-4     -6.149112789305471E-4    -8.460207150696473       655834.3372814514
1.1276477831848732        0.14990690027031855      0.19403716660616838      -0.08293190584590861     -1.265774368741914E-4    -8.850536689450944       312677.6713715747
1.1940084496915568        0.2                      0.19955388334619265      -0.0061304511716305235   -7.479198928610953E-4    -9.794493637873718       628126.9819914798
1.1888747056310773        0.13164990043961267      0.20835377367316266      0.11966083281104689      -0.0012550231136401677   -9.727076447255714       577944.1647187744
1.1995565373649688        0.14167306338691615      0.1437841441612324       -0.8086518112811341      0.0030060035250529674    -9.8844483548222         1481757.1289098645
1.07071067868438          0.14285714214836406      0.27071067755292955      0.945083846309686        -0.007627532411575837    -8.06484457803259        2415694.487155745
1.1470160752322272        0.12888692173748767      0.26801134385836056      0.9496659466687519       -0.004203770310637237    -9.125929587296213       1821205.3387029315
1.104741551990956         0.10102045996879173      0.35078718649068463      2.0537251810922417       -0.001051071939143618    -8.547605793903896       4167888.942411321
1.0618631815527095        0.2                      0.3381400590070266       1.8195095869623428       -0.028991520684555513    -7.943870079801858       3910680.032732523
1.0707106781186546        0.2                      0.27071067811865474      0.9432825042258904       -0.016833423305856705    -8.05799790783529        2537015.3843453936
1.0665104948561381        0.1333469177369468       0.4                      2.676232548386385        -0.012736053749151936    -8.032115401552106       4886995.071658602
0.9999999999999996        0.2                      0.4                      2.5630398388697366       -0.0392821204149332      -7.112044935441598       5393678.467564609
1.1429360597977778        0                        0.32779997810531836      1.7786699535507042       0.02139283831292152      -9.0712558568899         3506724.1274098735
1.23266270163058          0                        0.15468419969251257      -0.663740991802018       -0.008035688995710395    -10.367486079943717      1249920.7166303885
1.243578002562498         0                        0.08549742253106513      -1.689285166703436       -0.018797446332603298    -10.53983541361829       2751565.7143773986
1.2329401307491625        0.06651177160179307      0                        -2.947254171034481       -0.011189087438690796    -10.408751118617603      4740219.984117413
1.2360168612229216        0.10582537837641347      0.04019220842619964      -2.353542512883662       7.337817996815895E-4     -10.444039047977041      3793425.5114606493
1.2                       0.2                      0                        -2.8934227002975668      0.031453076779459715     -9.914715566214527       4851629.93763134
1.2664113343358316        0.13321324693481515      0                        -2.999339695831543       0.009435620544269134     -10.912327750361277      4620199.790926701
1.2755539653182357        0.054767582172228046     0.0628045852758425       -2.0605227284868657      -0.010340974288699265    -11.034575173054968      3168923.942336678
1.2999999999999998        0                        0                        -3.0498462181251913      -0.030774214857079006    -11.419923428229255      4496004.357387008
1.2494317455928299        0                        0.2017421531160428       0.02553513123646795      -6.688124678252305E-4    -10.617624265772863      664827.9887816696
1.162302818913618         0                        0.26244118168153346      0.878864056401785        0.009738673852993379     -9.336551611559962       1695509.8517944915
1.1648417679788305        0.06171634085471087      0.2518862541245317       0.7323140656858352       0.002575473121169674     -9.37987199951152        1375370.774972686
1.2304213729203965        0                        0.24038961816791776      0.5904543374190475       0.005456553615743478     -10.33362839630007       1150306.503999574
1.133285050115594         0.06662898428804664      0.4                      2.785400925002548        0.010343705106349719     -8.961822804432416       4950122.4503387455
1.2000000000000002        0                        0.4                      2.8933504260493597       0.031110243866702525     -9.914918324683692       4851014.275331827
1.2000114699771909        0.06413447137140223      0.3305905302342065       1.8826180482629202       0.006708592836874557     -9.902937132264244       3241688.660411559
1.2900042240975085        0.0731708675030239       0.1376445777881777       -0.9412645118978064      -0.0034961991455893485   -11.245535195555894      1534421.9980553808
1.2527921827494801        0.06520547441516705      0.21832465023990433      0.27118540101143124      2.231806205725944E-5     -10.675369848259715      768505.3056706756
1.2477311075724875        0.2                      0.08533569392512722      -1.6950141348437735      0.017147407595088295     -10.602124211941119      2749199.607088801
1.23604582232319          0.2                      0.1567961541162804       -0.6335067789136686      0.005933294074051584     -10.417733172291177      1202514.0779782385
1.2824818491791354        0.14900823248803274      0.1268751717334034       -1.0996334187233134      0.00449599732922086      -11.129827966096009      1764198.2143046397
1.252794315918215         0.12910462710361031      0.18775583192832793      -0.18118410608162516     -3.959462224725209E-4    -10.675525040783363      699668.2894752442
1.2515730838893508        0.2                      0.2030274407969068       0.044995515724925446     -0.001423452817709373    -10.64975254265232       666150.7159447855
1.23656927103409          0.126304883686085        0.2613174241721823       0.900303575448956        -0.003511313454856651    -10.434421676285845      1568630.7846890402
1.1621837449680872        0.2                      0.2629359217506004       0.8860321904471822       -0.011533584093580383    -9.334853464746546       1692007.6355162694
1.2305610539122152        0.2                      0.24145325540058835      0.6064926639791571       -0.007486392301248347    -10.33566215207915       1175247.3492678818
1.139963241450811         0.2                      0.33099189534547824      1.8208786196832218       -0.023600693268555628    -9.029955358099414       3646444.0307980026
1.230246342757124         0.13232877332148157      0.32883231148139297      1.8887611805757987       -0.007607726280742963    -10.350022811124662      3109729.5895131216
1.166653162226419         0.13349513128430476      0.4                      2.840321171543336        -0.011799670343813377    -9.437422946960538       4917020.872679133
1.1631416429348844        0.1453906324024088       0.3385792093207606       1.956089697649129        -0.011442906368554563    -9.36865872940067        3567694.286464888
1.0999999999999996        0.2                      0.4                      2.729221103992554        -0.03468034979890774     -8.488887235505743       4973333.767770078
1.239633918850097         0                        0.31265677512991286      1.6580923596846473       0.016738878338565553     -10.480308861662824      2728109.4886047593
1.295483742362927         0                        0.24281061588841119      0.647297910146192        0.0054006227700039685    -11.321469381321196      1167319.210811312
1.3110228141611846        0                        0.15508350695031406      -0.6848759060335541      -0.007712893704255804    -11.562243420008057      1192982.656516843
1.3464287785199454        0                        0.07806840314774924      -1.8939481973992156      -0.01859968648111674     -12.126543534208851      2671516.4070670656
1.3725392724532381        0.0442017481671062       0.043428070166807234     -2.4651093308196175      -0.013365089950209632    -12.553025841146852      3319923.96664441
1.3236224811809847        0.12091181007099015      0.05176259638021506      -2.2808638210128716      0.0036099075063595063    -11.780328570168935      3280618.561790365
1.3329516560485866        0.0665321466730792       0                        -3.09928392656725        -0.010660928711135291    -11.939064471510621      4380498.31605052
1.4000000000000004        0                        0                        -3.193590422107891       -0.028540904295160836    -13.00020550355046       4127454.6862548403
1.2999999999999998        0.2                      0                        -3.0494454421293637      0.029113082487127347     -11.419719006877601      4490056.074868783
1.3663028187446942        0.13318453653435422      0                        -3.147090922430487       0.008411081885645768     -12.465869122696168      4246610.969994537
1.3604555147137118        0.04396496141747559      0.12797268705696987      -1.1246685683919007      -0.0068403301155963445   -12.346754702841231      1645250.1904238495
1.3152815538889238        0.04339098625111928      0.2044485319078871       0.06786370366117221      -7.181621061433872E-4    -11.632033825171028      668518.0036800611
1.271815631302839         0.04819964319965343      0.28009001083332136      1.1980618832523762       0.005306039969157694     -10.967500048190352      1934807.7780362144
1.2333549493573057        0.06671207845198208      0.4                      2.947730509978783        0.009389084063840826     -10.414961985195632      4735716.480566313
1.2999999999999998        0                        0.4                      3.0494232050027406       0.02875900549417845      -11.419913105337129      4503646.802336195
1.2718633127041648        0.07358686340083356      0.34100981778374406      2.1141217021928327       0.004613674816347408     -10.98011273325895       3265290.714806393
1.388629935768256         0.15881692320939933      0.054365721969856146     -2.3078859862715664      0.010822755701464869     -12.808295999115378      3045845.7185617755
1.3502887484225239        0.2                      0.08195628514140739      -1.8361831937118647      0.01593465037759959      -12.186685442569404      2585964.259520012
1.316102778997768         0.1395028980467912       0.1740265528627398       -0.39684785676789763     4.6524817463562495E-4    -11.646443946168178      858847.1284853094
1.312761254610736         0.2                      0.1578104638530789       -0.643360516092277       0.005232725803091482     -11.588932101353878      1143334.160341814
1.369359732166737         0.15977264072584652      0.13710533947466977      -0.9856093533822834      0.004187256949491789     -12.48732207443385       1462058.2317338318
1.2965891605696802        0.2                      0.24445727299077596      0.6730130034127362       -0.007764809306613134    -11.33847216216345       1196672.3121861536
1.304645076954071         0.12384216173395836      0.2274189910089748       0.4167479377077807       -0.0020496327557097383   -11.46926411781101       885274.6795643463
1.2394856955252587        0.2                      0.3129288956414502       1.6622885535086975       -0.0188141747520326      -10.477988136902367      2731318.952728194
1.3073900780237524        0.1476739484433143       0.33541632990217307      2.0661821317427282       -0.010767854206953094    -11.523664748931502      3053643.8387170676
1.2666306017840618        0.13332323705133997      0.4                      2.9997922427539194       -0.011334130518214193    -10.915671701356926      4619577.679140239
1.2                       0.2                      0.4                      2.893753773846828        -0.0330315789486992      -9.91488525056198        4851467.001004054
1.3376362251439076        0                        0.31698506802430515      1.8089123648884684       0.015777415750862663     -11.987057044394703      2591007.2850773144
1.3768314038629295        0.037765186876860174     0.28385375161009485      1.3191717109593202       0.00605341386291261      -12.608838605160063      1853452.3686769388
1.3780941852632866        0                        0.23144081346128648      0.4941318882086654       0.003183835005226975     -12.620537030673516      943841.5671547361
1.4128719830344023        0                        0.15818428328023837      -0.667869719433387       -0.006922541996504093    -13.182760616522133      1069439.4370140128
1.4507620767713902        0                        0.0820859564646158       -1.915993681722612       -0.016721941623967555    -13.811998759033372      2364476.923140434
1.4231874957616897        0.06708271777997328      0.12749364770823343      -1.1637283920522008      -0.004447692048447295    -13.359219375403196      1570947.8902250775
1.4764037668626304        0.040294328132870816     0.14167077891394753      -0.9562815887079712      -0.005791614968151699    -14.234949330277688      1275286.492535649
1.432843050896302         0.0664453672796971       0                        -3.2387546152892592      -0.010066318220368213    -13.540378492821503      3996084.445434699
1.5000000000000004        0                        0                        -3.3248156718610464      -0.02628027065922697     -14.649242262917952      3750333.0017969073
1.407263013009694         0.09056512851558146      0.07157601670841005      -2.050695927578078       -0.0028027330452585434   -13.108355913157729      2655410.0269978084
1.4947041642081569        0.05679635157556977      0.07428681329401228      -2.0792165608786086      -0.008148093890845217    -14.550151929549846      2402728.53851748
1.4457415777730207        0.13849738702552616      0.0576774776417497       -2.3103363171231526      0.006010153878974936     -13.73883254540362       2829593.5433320855
1.4                       0.2                      0                        -3.1931581091692864      0.026428552043382823     -13.000016550631598      4121366.5725205056
1.4664096820868604        0.13325897808243123      0                        -3.2826917124985333      0.007398282982931008     -14.093669646380736      3874472.8525652336
1.4178899148474124        0.04491011442822889      0.22031482119671963      0.32496830411221295      2.1116383135697837E-4    -13.268241610395366      777900.737427063
1.3335117782213484        0.06670464407036691      0.4                      3.0999361528730804       0.00843957241387919      -11.94784962020657       4377285.352854116
1.4000000000000004        0                        0.4                      3.193168674046015        0.026086349453229473     -13.000205389593342      4129597.4737694846
1.365596485117616         0.07682980638810535      0.33845935850608233      2.171484760233           0.0032606984493811645    -12.44030871850129       2968976.1398769347
1.4544222660233967        0.2                      0.08040118204822187      -1.9459000991914015      0.0143850787231041       -13.872549084055864      2382249.544104532
1.4304586672846855        0.13695927791450457      0.13595549527186976      -1.030742265920335       0.0019140986606651846    -13.477144830418403      1414949.8582457833
1.4154317145450903        0.2                      0.159062847354641        -0.654106399796087       0.004313696290768031     -13.224191009939466      1059840.849941502
1.4893792098478236        0.1606259627476141       0.09726267732203026      -1.6942447952767024      0.006520401903927679     -14.456313729947489      2010507.8665373467
1.3824560578961718        0.2                      0.23280978728823876      0.5171417558241951       -0.005826351516600537    -12.690426778573416      961530.2986920496
1.3849967168472297        0.14052207332048128      0.2159859260773141       0.25228583150594935      -0.0021275433443375823   -12.736552319849375      732527.4364441932
1.3654169028835825        0.1509216438258453       0.2829525793057116       1.2985560009490351       -0.007218138121374932    -12.427224197492647      1847964.8543329088
1.4325316273759867        0.15164144591391993      0.26547459639998766      1.0547773838451893       -0.0058783088662120305   -13.510347201252669      1438737.7293885993
1.3404702790088079        0.2                      0.32243353685739007      1.8964850838634888       -0.018971750764713465    -12.032482211325545      2700004.5142188566
1.3667780824907863        0.13336701720993913      0.4                      3.147889724751305        -0.010780105947256953    -12.473432920132504      4251653.223058599
1.2999999999999998        0.2                      0.4                      3.049835669412498        -0.03115026430407918     -11.419770388413683      4498550.244964474
1.4365717969234126        0                        0.3169589510947722       1.888983665484351        0.0141199022570404       -13.578144991736927      2378516.7518772497
1.4767917208571544        0                        0.23607739226366783      0.5909266218012456       0.003191781690895975     -14.235988198375308      963659.0162181106
1.5151871676553013        0                        0.16372204780733554      -0.6034410018173645      -0.0059262974732236535   -14.88155411721215       936492.8280972426
1.5078069051526477        0.05679202153284719      0.2053017524656045       0.08784172156162379      -0.0011969459012224903   -14.760940286404322      661844.5009373695
1.533006481821479         0.0665553058776986       0                        -3.3660844264988703      -0.00943877738840182     -15.21284420804932       3624353.994120525
1.5498757332242283        0.0474743641360672       0.15742212652140564      -0.7172515635674503      -0.004173790335766398    -15.477121966505125      984425.7034072856
1.555363629743608         0                        0.08394827132385313      -1.9612867390784574      -0.015183709570698587    -15.57380930417708       2106706.5342548788
1.6000000000000005        0                        0                        -3.443618003650656       -0.024043749432073856    -16.360647858463803      3380893.358176366
1.5343218357901893        0.11151279534608703      0.05005641393436512      -2.5188034662669576      6.91772500068725E-4      -15.22522788079755       2729666.0889374246
1.5767347300258967        0.05500207769043344      0.05657619133719691      -2.444547330462648       -0.008952173860680748    -15.950608255248204      2504227.8089054544
1.4999999999999998        0.2                      0                        -3.32436473265168        0.023718350536693435     -14.649070011799088      3752497.8001503632
1.5661559021938094        0.13317394348691813      0                        -3.405304616734951       0.006334183827960381     -15.779951768903143      3500095.884008785
1.4925179307234295        0.05204985363590504      0.2790435783225221       1.304321769483676        0.0032788757987607313    -14.507214498140378      1595371.1819343255
1.4334577205389327        0.06693957988244484      0.4                      3.239424227914339        0.007340855435771625     -13.550478903148106      4002292.5433053407
1.405884822970441         0.14108599082792941      0.34349311640929053      2.2911958984352365       -0.009433807363035347    -13.087696887077094      2961562.1790376864
1.5000000000000004        0                        0.4                      3.324404787913983        0.023373977767770223     -14.649266956765045      3754077.005522189
1.4692163416898945        0.07312590944064898      0.33962910182858635      2.2878053073355478       0.0033305590936427904    -14.127389852392126      2720083.216865744
1.5585830964191374        0.2                      0.0834755292441904       -1.971043118258553       0.012255238044266705     -15.628993211888535      2106493.351766194
1.550507850023592         0.14746348931393774      0.10833134863746799      -1.5456267795641419      0.003709677764600253     -15.492013184110931      1709391.4187625789
1.5167680765014955        0.2                      0.16376206008681368      -0.6027025325325609      0.0030176745934434594    -14.908138252487824      937295.4958612813
1.487586424185137         0.12390802054991373      0.1885954473658089       -0.18760376114553445     -0.001063144499724451    -14.421690078462898      678771.3804645325
1.4917497202137855        0.1135810836110086       0.13171150942898446      -1.126437979384207       -2.1888524551179608E-4   -14.49456809301371       1408737.3226394611
1.535639107076964         0.16394635852466866      0.21134005565012295      0.19012157761619564      -0.0024279566361697113   -15.231837521722602      688032.2946894756
1.477830165966254         0.2                      0.2370349499028743       0.6073744566661071       -0.0061675588040437      -14.253208740938444      970623.4488868511
1.4351333378365059        0.10460604087295737      0.2116504185690144       0.1877926895141383       -0.0013932866129642701   -13.552064771862966      690670.8813702195
1.4374660738631753        0.2                      0.3180425847606021       1.9077246344728434       -0.017100514002707592    -13.592842281021559      2400108.153810646
1.4965505802716081        0.1402779478249696       0.3254158892471699       2.075712357213101        -0.007895806952737646    -14.581207664517873      2397991.908573021
1.4667651363081475        0.13340505445077608      0.4                      3.2832792602833956       -0.010174074138683825    -14.099593585599754      3878176.7388956174
1.4                       0.2                      0.4                      3.193586361592637        -0.028900516157000827    -13.000045938987467      4126030.20972849
1.6166709326750621        0                        0.1645681063321122       -0.6102436262934221      -0.005570428675216537    -16.63063108818145       886907.3934756565
1.6326935275751264        0.05596606673888899      0.1027659701729696       -1.6851312390683828      -0.006298339788330135    -16.920613240140444      1638308.8479337776
1.5391679489003047        0                        0.31919874039834506      2.0026925931543933       0.01268555485292727      -15.297032895616352      2194595.771756548
1.5750261274757675        0.055063763587159746     0.2731487665261272       1.2433303222530476       0.0021342919339207016    -15.912445703806332      1387713.486001109
1.5777159070558646        0                        0.2452444568778177       0.7689821571897474       0.0035767517377754275    -15.95254411192436       1023351.8472456685
1.610019268125519         0.048628254807473986     0.21564935870199878      0.26880698255169266      -8.032490269034562E-4    -16.517710726780532      714337.6317580902
1.6330040546514217        0.06627300044406335      0                        -3.4807645834261645      -0.008946263896543807    -16.942866902014483      3266051.876006498
1.660045641866583         0                        0.07513511812356172      -2.183604899101599       -0.01486890757536808     -17.402712681093302      1988298.4241791186
1.6666850572192125        0.03997919581233908      0.16057785912024242      -0.6892832365689698      -0.004192794796530329    -17.51769310352495       888902.8469406557
1.7000000000000004        0                        0                        -3.5504451635347603      -0.022230233195730528    -18.127635828290725      3061921.4179850793
1.6176446969840808        0.12376127315086026      0.04381857994366771      -2.699449216125722       0.0025441162254691975    -16.665118843890586      2599365.866342437
1.676357445899441         0.08162206772048078      0.050192151600011135     -2.635705228542849       -0.004561682404219904    -17.701316718489984      2334725.2693999913
1.7225344537016825        0.03473939763558288      0.05556368053755126      -2.573895131386748       -0.011188966500273494    -18.52657107610323       2105380.4353641192
1.6272833860575207        0.14714947064890174      0.10465583449517445      -1.6492897425722008      0.0032853244254104842    -16.8250279407306        1620438.4161795261
1.6616830839263401        0.2                      0.08560637715305597      -2.0003066792227395      0.010370225924886015     -17.43037356593947       1822778.7809869268
1.6                       0.2                      0                        -3.4432010024737836      0.02107623269181574      -16.360476028472107      3376864.594445287
1.6662719116276161        0.13312293456071528      0                        -3.516110502641354       0.005414890020348714     -17.530591064610007      3150127.246559394
1.5333799166051336        0.06682796221281338      0.4                      3.3663718905906275       0.006334321739433192     -15.219244598579055      3627759.2814521254
1.6000000000000005        0                        0.4000000000000001       3.4431661100212607       0.020707949586854624     -16.36070382661683       3382623.6763147623
1.568311237443666         0.07564480287651344      0.3398704515014588       2.376809748459932        0.0022551054245131407    -15.80554382576444       2469431.363239736
1.6185862731561684        0.2                      0.1667802842208392       -0.5720415633330933      0.0019983288461720666    -16.6639798590325        862877.3978468399
1.6733919954419807        0.15393105716639272      0.1770414207596414       -0.40192853093963493     -5.362271226017166E-4    -17.63704726107671       775858.765336681
1.5827920125724475        0.13098197616519539      0.15953000733671813      -0.6893156153914094      -1.5437681734029775E-4   -16.0452979128899        929909.8413166035
1.5780921414722304        0.2                      0.24611298822868788      0.7842768099648235       -0.0069755817178848165   -15.958930740135171      1029021.3923352263
1.5607821556726595        0.14956934193485394      0.2808830899118939       1.3684957706673773       -0.006347740616896832    -15.667221077085307      1525267.1294999868
1.6171735649735002        0.14648697213107564      0.21844259094193383      0.3177230843889214       -0.0026532464745150173   -16.643193663978533      729515.6372836414
1.5410598419229422        0.2                      0.3202131456464863       2.021604798908711        -0.016062673097918256    -15.329325439894946      2209893.891634593
1.5666636708876993        0.133456080226036        0.4                      3.4060401019729833       -0.009580410353932698    -15.788703800302388      3503492.68182469
1.4999999999999998        0.2                      0.4                      3.3248085940923526       -0.026611565701622052    -14.64910683715298       3751368.8588578706
1.717239145619316         0                        0.15878835754173548      -0.730088837412513       -0.005745781070033469    -18.421310927990366      908506.6818260548
1.716242543498916         0.05329954950295911      0.12065966506258782      -1.4073313272430286      -0.00542868524283285     -18.408351345953193      1191624.9716780686
1.6758889291778183        0                        0.24766948818736198      0.8352629828775711       0.0030238502709216413    -17.67875108003636       970092.8241756622
1.6442394735399213        0                        0.32677154288764954      2.206074681643856        0.011736818084311075     -17.123276144560627      2064164.4819280852
1.6574980869826605        0.057594283499385834     0.26112161690459024      1.066203679628069        9.027727135110935E-4     -17.35631742192257       1115720.7599818122
1.7461513169738694        0.05721564763543457      0.18005461599664124      -0.3557560070623999      -0.002595260107993374    -18.94957853812672       884441.625862389
1.7223727872270111        0.2                      0.17027692001225697      -0.5266904482190296      8.877244270389087E-4     -18.513850807691934      871572.3225555988
1.7330045698329903        0.13882824957547615      0.12497005639641293      -1.3360980026234266      8.641636686395458E-4     -18.711613560593598      1107785.5953125258
1.7330278041970768        0.06630241504849906      0                        -3.584170833915586       -0.008621115775146572    -18.72705937686825       2990083.41218683
1.8                       0                        0                        -3.6499254619731576      -0.02188559965641737     -19.944447959062757      2973149.2861899273
1.773157396168395         0                        0.08683562706832165      -2.038103139670777       -0.01200600900426027     -19.440592438977237      1356258.602243009
1.72050973465551          0.1302288274327757       0.05534278932595496      -2.5764634348329505      0.0025717239776234437    -18.49176585948891       2124698.506196281
1.7939754246097608        0.05545625898771931      0.07995565755509589      -2.1742686636300594      -0.006552364971868925    -19.827313746847167      1410037.1355256066
1.7792692938542514        0.2                      0.09212330850251212      -1.944232097143938       0.007381535980562985     -19.55211608966796       1233598.284493015
1.6999999999999997        0.2                      0                        -3.5500624528597178      0.01884867342487682      -18.127501012630105      3061884.607399968
1.7664658426556317        0.13309739828302644      0                        -3.6172797519090216      0.004834346012884627     -19.33468538863451       2976002.0841716924
1.6334085700692489        0.06682323648882371      0.4                      3.480944357245043        0.005331391381279359     -16.95003188706996       3260401.821843367
1.6010010800561039        0.13839567731902397      0.34171387653547464      2.4348665619321563       -0.00791585444121465     -16.371624633097575      2412295.429898084
1.7000000000000004        0                        0.4                      3.5499501385167496       0.01849419972118865      -18.12769335890744       3051333.950233732
1.7592059882625288        0.1462666246715409       0.1865094584735429       -0.24111810768716335     -0.0014721492432190333   -19.187548776171656      923307.3806693157
1.6770628314255953        0.2                      0.24830614818510877      0.847169598912862        -0.006815052201562612    -17.699537370493893      972403.5008880149
1.6550318135864397        0.14567471998378156      0.279267942490388        1.3824772700536476       -0.005675454969608057    -17.313526284838776      1342987.5605356332
1.693299146376697         0.08219610997040971      0.3500323909982453       2.6525467267064706       7.484000467374319E-4     -18.003978289825117      2287363.112669877
1.6463394913591582        0.2                      0.3235857084149412       2.1522091745742395       -0.015102130272864884    -17.15978448174804       2009458.5529553061
1.7323229939103755        0.15638219023781996      0.2699408445117358       1.2451546881185573       -0.005648651185457197    -18.698300785814865      1056553.5313830415
1.6666212595612675        0.13341237001344983      0.4                      3.516545074565007        -0.009064113303026115    -17.536803859160386      3147845.8070675856
1.6                       0.2                      0.4                      3.443589793191616        -0.024384521484339283    -16.36052604840987       3379517.3869057912
1.730375362647013         0.04363118078381612      0.27307212068517855      1.3000771975077934       0.0018025113012811666    -18.66321346486507       1092308.8421132485
1.7553198242794619        0                        0.23093840051092412      0.5523073665947161       6.6845835067639E-4       -19.113272029707193      933593.4526023979
1.8071956973272763        0                        0.18032782694976074      -0.35342808316218116     -0.00312257997994251     -20.06817238708286       1275049.9036028993
1.7506463823342189        0                        0.3131378025780045       2.0265304487204108       0.008448991350312183     -19.029855145403932      1482175.9894653177
1.7959416590928623        0.08321528598409066      0.22204023966675843      0.39625518099548124      -0.0018789903798982414   -19.863140091655282      1080823.5183797355
1.8086818009108283        0.2                      0.18222875167500266      -0.31884566006815224     -0.0011442649323955484   -20.095931135426383      1339693.3374306527
1.754172891441516         0.2                      0.23121714621959644      0.5576214220955146       -0.004668420684510704    -19.092037990070725      930230.6650390831
1.8332291885488416        0.06649631141446613      0                        -3.6841624348542727      -0.008568130273148802    -20.565922146848177      3101454.524002016
1.8652284181491403        0                        0.06903937807818175      -2.409784333243858       -0.01095582854790306     -21.149285615812513      1482203.7976239456
1.9000000000000004        0                        0                        -3.7548391325719415      -0.02139624131631795     -21.82400772993161       3287347.361594078
1.854911051854185         0.048846069877803364     0.18018960748934013      -0.3561622123376518      -0.002037188316493019    -20.957826867211104      1404051.5217142904
1.7966876236395348        0.09444469524059468      0.13412379314786632      -1.187691939401429       -0.00221846651339759     -19.876917723147173      839126.655950091
1.8537898703688478        0                        0.13049723986570141      -1.259892670079854       -0.003858140732056391    -20.9330374703359        625041.4449093243
1.830189747567641         0.1178356575670155       0.06724316626357647      -2.4272643230337945      -1.0576229437259963E-4   -20.499374190996836      1553086.9905736935
1.8334266829369597        0.14402259689630162      0.1594202636745505       -0.732291048383869       -0.0015477807057550817   -20.557168927339095      1077024.269099609
1.8623740031360267        0.07417263677463105      0.11522779437567728      -1.5448274226414125      -0.0028499906902986756   -21.0976773748814        496194.87999839266
1.8558127100236028        0.2                      0.13187296054750908      -1.23392217395215        -8.654464199763157E-4    -20.97048526499968       598318.0616998724
1.8681524500901145        0.2                      0.06785581075491134      -2.433231691674657       0.00698895960265089      -21.204537258450546      1517998.7681953257
1.7999999999999996        0.2                      0                        -3.649563822357147       0.018093872497277157     -19.944251522501016      3016698.1044076043
1.8666440530228336        0.13372404484985864      0                        -3.719141777139222       0.0044538719275958845    -21.193636751490633      3216489.9604467833
1.7333196195713119        0.06675767598212508      0.4                      3.584203669895399        0.004623989472774617     -18.732418113731793      2978285.3924900936
1.8                       0                        0.4                      3.6491393229522098       0.017607519611729988     -19.944440911394615      2990313.0225108387
1.7675208835967817        0.09460523543070053      0.3461341598510525       2.635534887032805        -0.0014096480817354683   -19.34579519827569       1990211.3064015065
1.7922981511192182        0.04583365784057128      0.31672244117538795      2.11237394849925         0.003169020441824128     -19.795794128170165      1337730.7824871242
1.8142730052998943        0.14905392715709923      0.24169888744330614      0.7522448598185724       -0.003222499008018727    -20.200767488717087      1055516.5135166675
1.7503841988735982        0.2                      0.3141416243332428       2.0449157165295238       -0.012705343696760218    -19.024979756761297      1478739.672637642
1.7002966181358035        0.15285220516902875      0.33399955343917875      2.372103505741236        -0.009172511326531388    -18.12582719673554       2010941.226677787
1.7667171243903868        0.13357632385496299      0.4                      3.6173331760043843       -0.008892183464221172    -19.339254649001955      2949276.560957159
1.6999999999999997        0.2                      0.4                      3.5503797094926255       -0.022571304450714202    -18.127529551657474      3055751.7720749076
1.8303149085598223        0                        0.2535150750888745       0.9658455457383149       1.6200801943992357E-4    -20.497352854762767      955674.7358986054
1.9000000000000001        0                        0.20000000000000007      -7.59289363804287E-4     -0.0027723607279192095   -21.789397576537194      1398270.129905815
1.854936736175836         0.07103199195053826      0.2671860433194339       1.2187140140978638       -0.0015757769707284335   -20.95761518497228       625427.645727272
1.8507906161030512        0                        0.3227046241228906       2.2475939425532028       0.006069628875543368     -20.87721475638301       1274837.409171829
1.8495829182794423        0.05802808364948829      0.3410697253107835       2.5927238541835815       0.0022763805710810927    -20.861539745797476      1695311.3977425285
1.8999999999999997        0.09999999999999999      0.20000000000000007      1.593531063750617E-4     -0.002294399875650159    -21.792351872517017      1353173.7208253737
1.9000000000000001        0.19999999999999998      0.20000000000000007      3.324002169388176E-4     -0.0022410190072570503   -21.790039415522937      1468509.272673106
1.8337021819082464        0.2                      0.2539726508448108       0.9743684444123166       -0.004213549468819417    -20.559350634710594      913160.6331351318
1.8200380893103274        0.141643760845862        0.341458509934257        2.5830502387679193       -0.00732382180005475     -20.31078978020326       1747916.6020994065
1.9346371860485108        0.06678399123013638      0                        -3.7923051677737996      -0.007627467360451528    -22.505669291426724      3018399.1936428417
1.9375957347168258        0                        0.06219652372999121      -2.579568680712715       -0.010246896385556275    -22.54633844264305       2055472.920132432
1.9001252482281805        0.10269666234246001      0.0559874488405333       -2.6784756457248653      -0.001832260589638028    -21.82320631665487       1854710.4843577554
2                         0                        0                        -3.8443113983515493      -0.01498651638743043     -23.80795717301138       1867800.0911392765
1.9605390983258433        0.06527350964480345      0.06106145771616418      -2.6146783296941147      -0.00526573592532592     -23.008830126895933      2136117.730709608
1.9292893218813452        0                        0.1292893218813453       -1.2778298402756407      0.003550099810106755     -22.363487576616517      1566107.0580521938
1.929289321787058         0.05714285702472736      0.12928932197563286      -1.27971061218604        -0.001022480774779409    -22.36871017623146       1575242.0514731472
1.9292893213156201        0.14285714214836406      0.12928932244707056      -1.2790296430417032      -0.0035432394251443803   -22.367887423649506      1425667.6987872107
1.9292893218813452        0.19999999999999996      0.1292893218813453       -1.2775941175602985      -0.007829814422545408    -22.36346704577942       1558066.8690202828
1.938042887087965         0.2                      0.06194887901822339      -2.584317963693149       0.0058661645040438285    -22.55513699873529       2062441.684413824
1.9                       0.2                      0                        -3.754387175420598       0.01724009254096912      -21.823952447989885      3254200.8634136263
1.9654912457415248        0.13318524813854418      0                        -3.8208249908659924      0.002913864377481951     -23.11759465746959       2506828.255298365
1.8338172040046616        0.06682896041667845      0.4                      3.6839275495260537       0.004192727698410435     -20.576757483833322      3074431.7173740137
1.9000000000000004        0                        0.4                      3.7533429047400237       0.016747763441786797     -21.823542314465882      3218553.0819944227
1.8655830679168113        0.1419409799990507       0.2821536779566502       1.496476158634618        -0.0033065185554837775   -21.157078617674866      364986.4988723937
1.8591937249987194        0.2                      0.3281927732809664       2.3547252163775747       -0.011127645253615273    -21.03488043734688       1396261.7059147612
1.866546631950174         0.13427039817164108      0.4                      3.718722942798443        -0.009037792597370507    -21.191202839138295      3181431.9525688454
1.7999999999999996        0.2                      0.4                      3.64947605374766         -0.0221583260325857      -19.944305942418765      2987344.435082795
2                         0                        0.10000000000000003      -1.8625504259447783      -0.01179328341987646     -23.800817915981984      1938111.6566034958
1.9034662647537015        0.09822185416685274      0.34632173838006786      2.7243095193188265       -0.002211692346963445    -21.887123035140018      1965139.0321926181
1.9292893218813454        0                        0.2707106781186548       1.2779683645965405       -0.0078102526804280864   -22.36252385686938       1490346.3096250452
1.9292893219756326        0.05714285702472732      0.27071067821294237      1.28038651851298         -0.0037728975948302435   -22.368054841907277      1494563.4930748437
1.9373238269328532        0                        0.33734202427180215      2.569933778620423        0.005302916820463425     -22.539516250308456      2020780.9126244457
2                         0                        0.3000000000000001       1.8632363894326223       0.006674548375448162     -23.79706407423333       1950984.5277242996
1.9292893224470704        0.14285714214836406      0.27071067868438004      1.2790144955594605       -0.0011311770477698028   -22.36906744644732       1625245.6603949254
1.9292893218813454        0.19999999999999998      0.2707106781186548       1.2797965906281084       0.0038990344976159784    -22.361369387790702      1443282.4951571694
2.0349581083715202        0.06540379385188076      0                        -3.86289771870472        -0.00597377978159088     -24.512557203348482      1253056.5453841756
2.062474750645084         0                        0.06148660809669953      -2.6534417013571807      -0.012374407077365033    -25.05988838815502       1139669.30651295
2.0565998416030142        0.06126985523485762      0.0638239107108832       -2.60567410257562        -0.006298499708754938    -24.94280110333712       1318263.9943671203
2.1                       0                        0                        -3.8821450901295864      -0.00930184587669896     -25.808342439657967      823714.3058302369
2.0453170507027196        0.11250734664712289      0.046724377932092        -2.9384167606740528      -9.277579778279174E-4    -24.717481884477817      1325974.3518865476
2                         0.09999999999999999      0.10000000000000005      -1.861835377680251       -0.002488723302604654    -23.80309435106142       1872491.5336866158
1.9914968358782446        0.15268318385411478      0.055866488985711546     -2.732649826626767       0.003151518075838108     -23.63271782647934       2065158.5069865128
2                         0.19999999999999998      0.10000000000000003      -1.8619075724948162      0.007007743697587681     -23.800120366610727      1959103.752671702
1.9999999999999998        0.2                      0                        -3.8439415872319236      0.010554510843382173     -23.807747687463525      1833192.3096446118
2.0664599159991917        0.13384774189220475      0                        -3.8736525753879016      9.736083839498482E-4     -25.14202711903822       924211.0417133815
1.9358678565906908        0.06684842159825154      0.4                      3.791921354499679        0.0027591102409053646    -22.528138184747316      2967076.200105852
2                         0                        0.4                      3.84304725289379         0.010175143076899798     -23.80496063617665       1936681.0536552642
1.995968102805898         0.050776602848309205     0.34578898089807436      2.7673365579253395       0.002225139034563707     -23.719922822180408      1851078.1731383307
2.0623105349204014        0                        0.33745471676197614      2.631720351758575        0.007310604881909959     -25.05328733336165       1211634.9293912377
1.9368062388079033        0.2                      0.3378355658281236       2.5793803405822873       -0.01052658477091675     -22.529066599064873      1992221.937606603
1.9664510462337539        0.13411805914802732      0.4                      3.8201531403215516       -0.007817860444907674    -23.13447702375166       2555936.040922258
1.9                       0.2                      0.4                      3.753625681767118        -0.021869086928805972    -21.822996351098677      3285713.8296387084
2.0707106781186546        0                        0.12928932188134537      -1.33764692673152        -0.013561900162303383    -25.229151076059207      1951481.812316203
2.0707106780243674        0.05714285702472732      0.12928932178705774      -1.3401797520796588      -0.006557441254999268    -25.230170000143918      1886534.8836589842
2.0707106781186546        0                        0.2707106781186547       1.3355851423769318       0.008248570083588742     -25.22567861358573       1743091.5929376744
2.0707106782129423        0.057142857024727316     0.2707106780243673       1.3380080196304975       0.00159496274970011      -25.226902678544658      1846076.0217794927
2                         0.09999999999999999      0.30000000000000004      1.8610171707669776       -0.002410870649832172    -23.799769939333775      1753658.1786516232
2.002567734430384         0.1284681734626244       0.35128388371398533      2.87932345685107         -0.005638021267614785    -23.85485306651573       1944475.2805181548
2                         0.19999999999999998      0.3000000000000001       1.8627192598033422       -0.011261480304332277    -23.79647390147449       1982429.0403291732
2.131884296611498         0                        0.06698417027730762      -2.570887356496832       -0.009450377440910627    -26.43376188647483       1118600.2943196886
2.137548465375096         0.06731810485603906      0                        -3.893784848862119       -0.004597359665344387    -26.549670929801206      875049.8481280577
2.2000000000000006        0                        0                        -3.911015656671047       -0.008144244342736062    -27.7811547512237        874086.2444481523
2.145661491750356         0                        0.1309997585134554       -1.3282849823318972      -0.007694981460789531    -26.69907266663947       1159095.6923775224
2.1                       0                        0.20000000000000007      -0.002269072175904042    -0.0023220956888812534   -25.80935641069578       610787.3717557508
2.1317179509950215        0.0766435466367543       0.10347743414187136      -1.858868481535898       -0.004074412061235881    -26.42859143160233       1178789.24556386
2.1171305643487663        0.12986471695931218      0.05522376501652966      -2.7979899017035446      -1.9551763634432316E-4   -26.143444817399764      1079271.4559509763
2.062444871560231         0.2                      0.06242124406415428      -2.634189048895542       0.007834121549712025     -25.058557419740964      1204688.7375467583
2.07071067755293          0.14285714214836406      0.12928932131562007      -1.3391867542181428      0.001571180791371738     -25.229389329279233      1857252.1786404173
2.1000000000000005        0.09999999999999999      0.20000000000000007      -0.0022155756999119457   -0.002546344062263855    -25.812535590762987      610324.8665252521
2.0707106781186546        0.19999999999999998      0.12928932188134537      -1.3372701837619374      0.008553055555973523     -25.229033118780592      1931460.7565554609
2.1661130998884652        0.13224923560416568      0                        -3.9017580901161537      -4.469478662707449E-4    -27.112784426045895      883579.636574267
2.0999999999999996        0.2                      0                        -3.881535423689806       0.004806689963109921     -25.80793484332196       831996.8722417919
2.1013316632618375        0.047962428861504494     0.32589567763908034      2.420435079080796        0.0017973401127625232    -25.827492253922898      1155915.510260688
2.037192310426508         0.06692023782852466      0.4                      3.863039478609593        9.340541677797311E-4     -24.55460771857793       1234676.1453659926
2.0682800909506014        0.0957129750890743       0.3529033255566713       2.939838764518094        -0.002424532488221709    -25.17259564848361       1166824.0374469485
2.1419016990561497        0                        0.3279389163587054       2.4738241863994124       0.004020801542348196     -26.62740961525811       1060206.9314563824
2.1                       0                        0.4                      3.881399781135365        0.004441081122289852     -25.80512984813672       912698.1484314551
2.0663297717271867        0.13441653619754487      0.4                      3.873148146388468        -0.006165123625469198    -25.136347499695045      990013.9258093392
1.9999999999999998        0.2                      0.4                      3.8435438824312738       -0.016025499140633014    -23.804321971530157      1834328.2125861633
2.142546429215125         0.05039135490652804      0.20335108244826977      0.0619937298409067       -0.0024009602114669275   -26.637480299014943      891334.4582890474
2.167841462632905         0                        0.25413799054812775      1.0424913564108613       8.118521400036891E-4     -27.13295557891108       969913.8333203396
2.191077099737884         0                        0.17905153691150166      -0.4079945935878672      -0.0038436386516354985   -27.59201482932247       1048977.7228996537
2.050030362266961         0.14669067870652083      0.3248840321850069       2.380279931773139        -0.00751073690480401     -24.808319405360184      1384898.6112831451
2.062978534066437         0.2                      0.337643445845327        2.6358748209745664       -0.012698690298034521    -25.066423327428268      1190083.5277439782
2.1609541880123495        0.09918490160071336      0.29467218002562373      1.830185626437618        -0.002805092863448892    -27.00159512432466       991230.4095782476
2.07071067868438          0.14285714214836406      0.27071067755292966      1.3392641573018529       -0.0068588328666853065   -25.227371848939985      1833568.760902788
2.1226608996376957        0.13809028046979416      0.3217691262503002       2.3479077220650293       -0.005821717017177642    -26.24829635141855       1133056.4025183832
2.0707106781186546        0.19999999999999998      0.2707106781186547       1.3352681506952444       -0.013768272225310522    -25.225043486090307      1861000.5820741586
2.1906091581668603        0.0718017710066783       0.05761442141421129      -2.774093715775819       -0.0040080208760461125   -27.592724129240892      866014.6893951066
2.2230668374664284        0                        0.09086036437243655      -2.1293147727642103      -0.006480779843215194    -28.231200559734834      861766.4719405534
2.2368100024002033        0.06099904574857023      0                        -3.9221232876651912      -0.004513666888320897    -28.509229451246092      794682.5464590203
2.3                       0                        0                        -3.935743282190963       -0.006338972140265132    -29.761606248448146      557632.6187239535
2.138125183567181         0.13115408748666182      0.14616474909502378      -1.0351261962114686      -0.0012695871031576727   -26.552417892781065      1089512.409916757
2.1                       0.19999999999999998      0.20000000000000007      -0.002028165318236759    -0.002958607492919428    -25.809075182817445      613083.4848404764
2.1405938613771736        0.15067586344584621      0.21398014331054732      0.2663153768085809       -0.0035122805719331944   -26.599109222092313      883480.4272569843
2.1990005226948792        0.08683549947403398      0.13446514918946617      -1.2741605616590983      -0.0031560502413049965   -27.753101397521466      938050.3854349946
2.1322545107459248        0.2                      0.06905831891351798      -2.5297961487497536      0.004564487615021887     -26.440559684858247      1119078.3092482672
2.1985399947169344        0.14445688669110773      0.07997193290867038      -2.337210188871843       -6.278727177977411E-4    -27.74759399145318       890179.8615706785
2.2637748953007635        0.13155936645967534      0                        -3.928690969689462       -0.00129356588319157     -29.043258213778         695449.0634948207
2.145273191247649         0.2                      0.1310480552025792       -1.3269136988329555      0.0023640997311679852    -26.690958443951384      1164451.0026303073
2.2                       0.2                      0                        -3.9106567726404333      0.003126904376480985     -27.78083826567465       871525.5619671141
2.1900422221920337        0.05413185294794078      0.34596840650548966      2.8445942019534054       -3.2479068615328733E-4   -27.57804649763762       913746.6350355727
2.139006103270596         0.06665530363196846      0.4                      3.8944308786988713       -5.504891938429552E-4    -26.575201402114825      915778.7277254406
2.249281500589436         0                        0.3118728193881388       2.186646230929905        8.327818920683445E-4     -28.74662672946287       628538.378119292
2.2000000000000006        0                        0.4                      3.912615057655954        0.0035561549224275954    -27.77745679475881       995469.110283757
2.1683859742772813        0.13365221773278915      0.4                      3.9035070709663224       -0.005289675700751837    -27.15445208721057       971959.3336914291
2.0999999999999996        0.2                      0.4                      3.88235196873518         -0.010175559469019128    -25.80474857126094       893391.2966839676
2.2813939308926354        0                        0.16098077301582095      -0.7679310285880843      -0.004360415976244223    -29.385360645850195      875796.3742754104
2.3406858723609454        0                        0.07479273476130381      -2.4639477238796745      -0.005171128453138724    -30.56838214952008       601236.5879320598
2.4000000000000004        0                        0                        -3.9467144372038283      -0.003940248992271407    -31.748443155111143      128308.2992233942
2.3419013239889277        0.07682646335761847      0                        -3.9428426365567755      -0.0034010919859980716   -30.594249233197846      363941.16385057766
2.244120639356813         0                        0.23142232501557414      0.6086236675064108       -0.0019113950360816372   -28.642483047661415      755092.6531970184
2.2425829114731917        0.09874679530140307      0.20721727965660747      0.13705117939566772      -0.0029077582545741303   -28.613758756916457      797118.2771750019
2.2175931785961547        0.05292813910387904      0.27430593726151425      1.4444381045532813       -0.0014447917068527714   -28.11865163785991       723256.8429221642
2.1418882218390793        0.2                      0.32817102479740834      2.4786615275374375       -0.00968277327315309     -26.626569509527886      1051144.9022125623
2.1672507636081737        0.2                      0.25508978001797455      1.0612302130423166       -0.006579847917309094    -27.121076014440295      971172.6881509478
2.2107042458834787        0.14675508768326917      0.27160973887213735      1.3908407538458503       -0.00442364869488159     -27.98206838521333       757448.8717747356
2.27584572280197          0.06802109746114236      0.07994991659786622      -2.3541024364809235      -0.0037838785658937074   -29.279321634179944      705643.5865440203
2.347127674297327         0.05106332984828579      0.15635561041904097      -0.8635184963989135      -0.0038326083200997765   -30.69630036536659       784575.3525109858
2.292737098414128         0.13946109487122627      0.06251009322689657      -2.6996285229120023      -0.0016107959135171705   -29.615388657782653      627225.7861108609
2.347036912743354         0.14243634228013746      0                        -3.9432320673900256      -0.00184867943990912     -30.69616803133777       340810.32600952056
2.2999999999999994        0.19999999999999996      0                        -3.935349714720545       8.697252744220016E-4     -29.76132476710359       556520.0273653805
2.1961690798752764        0.2                      0.18416505598781746      -0.3090722051389286      -0.0019401156551674145   -27.69219103119209       1021760.1815602023
2.2215515331380344        0.2                      0.0884860312137223       -2.1750739933839083      0.001188470772669509     -28.201106437588066      860317.4420834067
2.25949719679851          0.152676597283468        0.124507191501659        -1.4780028471992386      -0.0015495072207648908   -28.952268974555796      823632.8719612772
2.2986552799311393        0.06138045204346583      0.22351318173388113      0.4550229546051378       -0.0029462559175588905   -29.72906627176258       738324.4012217904
2.3247968383147546        0                        0.24551173782278918      0.8861490667515691       -0.002721321796908254    -30.249677823429973      727563.1756582325
2.3663665395284283        0.07000883255908642      0.06860642468336917      -2.5885684463118914      -0.003546077946892711    -31.079338680310222      478291.2248945843
2.428402665958747         0                        0.06524006414282613      -2.6580537161581113      -0.004220446280342385    -32.31205016405989       293058.3102191026
2.431601956443034         0.06208770099007082      0                        -3.9477715936519204      -0.003207644344979074    -32.37471340068861       61883.85428360481
2.5                       0                        0                        -3.947243359511488       -0.0027157917780702306   -33.72846087851838       77286.38422896352
2.3617975927852797        0.13886226326771156      0.0672341029044629       -2.615056510495977       -0.002184169729937698    -30.988381523754143      486846.15258505114
2.4200326781209074        0.12225437202890424      0                        -3.9476634100962125      -0.002830983520838381    -32.14526223199449       57196.902949444935
2.4000000000000004        0.20000000000000004      0                        -3.946288549190587       -0.00197298625611491     -31.748184435970618      131717.86474824446
2.2863500855110246        0.055235358080448875     0.311120573444466        2.1787885357568446       -0.0015651748858652886   -29.483985887604607      492399.6611527423
2.2420139259892373        0.06588960499032703      0.4                      3.9274102731352634       -9.172224112058324E-4    -28.60848209582684       1006381.4897708439
2.221847969046045         0.12556967404372         0.3413170137255636       2.7619348845431797       -0.004409549478069875    -28.206081840525368      797202.808023031
2.35160871024915          0                        0.32109149989276764      2.3824638129948768       -4.6207984012128136E-4   -30.786727783956216      337239.0108699269
2.3                       0                        0.4                      3.9457048920227358       0.0029882284564492698    -29.75836310696486       980593.3270771991
2.2671357306918347        0.13172109715430644      0.4                      3.935953963402644        -0.005200951942675796    -29.106311996431494      997741.5319650276
2.2                       0.2                      0.4                      3.9130292968767506       -0.009664892845398567    -27.777066392672754      1010510.7231165507
2.4132993122465702        0.04686864928677456      0.10979633266111759      -1.7807136115074325      -0.004077319176603738    -32.01310045974606       514149.1451933866
2.410957310410207         0                        0.1569593884823225       -0.8549332496858925      -0.005199904394117051    -31.96933688932107       757432.8986198318
2.499999999999999         0                        0.09999999999999996      -1.973695968543165       -0.004341474903376055    -33.72883140563527       149650.20090950045
2.3843655047867025        0.07051196038484188      0.21452454560215312      0.2763471436332496       -0.003430593533095165    -31.441926566486785      835709.4126202947
2.420183008597979         0                        0.26423028552920436      1.2525032319670493       -0.0034318585808947684   -32.16578363389014       1158522.4125014902
2.3779056836842045        0.05738874339846666      0.3153340590125763       2.2710715346133976       -0.0022705405875111957   -31.314345691312273      428042.8893758862
2.431157596642239         0                        0.3327024864365894       2.6122223805454423       -0.001226532818604714    -32.40628397933774       2704223.2095014323
2.4000000000000004        0                        0.4                      3.9797218557590877       -0.004616543417259838    -31.773180255706432      2432593.396206899
2.24549172614659          0.2                      0.23278392975601153      0.6356799781704009       -0.004028606645735734    -28.66939746531964       744697.1117049041
2.2843832709580627        0.1403215522540857       0.18391283898925448      -0.3194498893137513      -0.002601990541775491    -29.445149556127028      814214.210198368
2.3035933258874817        0.12079109547168979      0.3388776015612072       2.732261483266385        -0.0041587497297658205   -29.827753076276817      573459.7002512859
2.2507250402826364        0.2                      0.3138096400372903       2.2255598326400983       -0.006973703286042799    -28.77505593813868       619712.0281144745
2.288646757219181         0.13277861197824015      0.2706647832597712       1.3811714267672457       -0.0037586469383958407   -29.52930122258798       538588.8356647815
2.3459268822647474        0.2                      0.07788492280647237      -2.4032643342018583      -7.878546951293273E-4    -30.672396750070217      600330.3590489089
2.2848730175467824        0.2                      0.1637721642856098       -0.7132832724230306      -0.0015798077904453681   -29.454254680895378      876655.0965926944
2.32660124598881          0.15272286613262107      0.11957213002798035      -1.5828454257276794      -0.001880284158696943    -30.287265853900745      729152.1169133642
2.5                       0.07431144822871519      0.07811263445048403      -2.404998929193425       -0.0034717287458813357   -33.72761030334518       69489.39945073162
2.5                       0.09999999999999999      0                        -3.947704266228449       -0.003197692327236966    -33.72764778270432       69667.12917815606
2.433287112200857         0.1415681164938998       0.055454843437867524     -2.851276309341997       -0.0026809605591795096   -32.40813422388622       210396.5678898958
2.4511834222099522        0.10525811253241578      0.09666719328427713      -2.0395053289033838      -0.003122530119014776    -32.76393234762274       299323.75279489654
2.4286126648563           0.2                      0.06587865474926016      -2.6450362591718286      -0.001897402110334999    -32.31596087737407       299676.7370076437
2.4068822027330543        0.1405188510844683       0.13042794026260465      -1.3749834774133374      -0.002387821337168925    -31.886222736874636      604787.406849871
2.5                       0.2                      0                        -3.946824197364235       -0.003503849022346989    -33.728034212198054      85112.53380032316
2.5                       0.13653743441683294      0.06516475883573705      -2.660232456971879       -0.003028362844562153    -33.72749764874765       27682.73983966243
2.3409934555296275        0.07602278569682036      0.4                      3.961056965409917        -0.0028459170940065954   -30.57611750994294       1064257.8630446093
2.4326977360221083        0.062124578579563265     0.4                      4.001300315723626        -0.021068071888794813    -32.420358296179124      3322588.684439845
2.5                       0                        0.4                      4.110107938732971        -0.1413062858016338      -34.27018403758489       2.25339719523105E7
2.345231868766637         0.14304440271094318      0.4                      3.9628659670386983       -0.0045951452535706325   -30.661024678779192      1118579.8673633765
2.2999999999999994        0.19999999999999996      0.3999999999999999       3.946104320831534        -0.009497072274206918    -29.758089757999972      980494.2393737301
2.4482282622778553        0.049902321291544136     0.24110644610237916      0.7983334673356581       -0.0031466995655930535   -32.72494174981877       1036192.7911085129
2.5                       0                        0.19999999999999998      -0.008412217678777714    -0.007249073591868621    -33.741377547948154      800880.8903744537
2.5                       0                        0.29999999999999993      1.966965346975855        -0.006820400443812359    -33.78865643915612       3288911.200623674
2.5                       0.06825746970290376      0.1719582498711675       -0.5585287337354307      -0.004126232936926619    -33.735355152750394      520221.9817751294
2.37981072852788          0.12321801102623599      0.3423399781850712       2.813452489881241        -0.003915140629882644    -31.351054358823458      365470.99435409176
2.4435072852228092        0.09435689045970638      0.3372344179440967       2.714273856179135        -0.002789364388339143    -32.635829673748766      589745.3711172009
2.5                       0.07144957393479301      0.2655784162417257       1.2859401123724827       -0.0017883291275821661   -33.76059997497705       1417655.581330507
2.5                       0.0635312374776317       0.3367071536815298       2.702004480705787        0.005607968602536157     -33.79426951452177       3293850.925142768
2.3247106410335276        0.2                      0.24640176344348774      0.9041408202062532       -0.0035528880192435765   -30.247514879012027      714799.928907992
2.3612109392598106        0.14040114684222396      0.2120126431090497       0.22778483494526208      -0.00285867043121664     -30.978422633319045      817357.2055590213
2.3594244470593213        0.15348140788401762      0.2761237516962229       1.4910280489797823       -0.00410087803493985     -30.943715047573914      593998.676212949
2.355268444950852         0.2                      0.3205354143390839       2.372107114768929        -0.0061801326599750525   -30.859580108350894      333946.0108253473
2.412863633949467         0.2                      0.1597926692206725       -0.7990043028581755      -0.0011364445878484348   -32.00725783891538       759711.1950537293
2.423435653847145         0.15307402051604438      0.22028492614366257      0.3887272363004934       -0.0027841596864894504   -32.22451332336469       918985.2661096829
2.5                       0.13169666564784674      0.13985051592060743      -1.1895915753623996      -0.00262951115840752     -33.73080114495723       359214.5384196852
2.4412843996761597        0.09560033245806163      0.1876438516202482       -0.2519204444805         -0.003411531335053101    -32.57590600127428       702252.2373076652
2.499999999999999         0.19999999999999998      0.09999999999999996      -1.9732385197981448      -0.0022122938133787916   -33.728659624724564      158239.28689634643
2.420482640784492         0.12343383880182986      0.4                      3.993711528868935        0.00563947717518993      -32.17239154277683       2909874.8602322587
2.5                       0.09999999999999999      0.4                      3.9844994576780794       -0.0043165145734519      -33.79275213783125       3980378.6170497336
2.4000000000000004        0.20000000000000004      0.4000000000000001       3.9795888311130576       -0.0014760251949984345   -31.770564596023245      2091042.1484711282
2.5                       0.13487460932197834      0.2377017479567543       0.7353203769612459       -0.003667704726299022    -33.751881656008884      1087263.713196783
2.4264250045028444        0.09162701089409858      0.2799258320977892       1.5660741839564087       -0.002872425630483415    -32.290269569653         734759.4046868506
2.4319414603828586        0.2                      0.332434827711327        2.6058050759233877       -0.006826905730332972    -32.42151439346373       2332313.0035492308
2.5                       0.12978772997798257      0.32586414020885346      2.4851396098729337       -0.010135074692585512    -33.78593935498552       2643376.455142494
2.455151334455791         0.14761724824760952      0.27924071254955707      1.5511148403600568       -0.006401630620856787    -32.873505412228         1376509.985878806
2.4222468153065217        0.2                      0.26361529752899443      1.240648157869671        -0.0027941652434331603   -32.20714458460099       1199526.1241023666
2.5                       0.2                      0.19999999999999998      -0.007829627776811855    2.882017375892864E-4     -33.74110395781022       846529.5348831302
2.5                       0.2                      0.4                      4.099586427332768        0.11910628099493836      -34.223250452507116      1.8944241221985664E7
2.5                       0.2                      0.29999999999999993      1.9670153606361822       -0.0023345701656259637   -33.78932577996708       3355698.6417132025
0.1362602941674794        0.10644653153466557      0.283760324706369        0.16474145185157504      -0.0017048158237517816   -0.16623128905229834     3845249.853558932
0.2622228789694824        0.0916499007683187       0.1482935922076187       -0.1957542372908776      -0.0011375331693335789   -0.5611102432502373      2265426.621734761
0.322389436221755         0.10069873216287493      0.15990177401895986      -0.1851315053772297      1.3677428639405183E-4    -0.8302125289306648      1757692.904282437
0.38054900335941566       0.09977306774737973      0.12182253575609159      -0.4227816517466945      5.283730764634125E-7     -1.1444715481231087      3154839.00472287
0.4119019875822133        0.104956722046996        0.17682055655268006      -0.1346197979890604      3.0769180291849966E-4    -1.3219391036840518      1109459.019413704
0.4828341150958164        0.1046878534982274       0.13688123270726701      -0.42450109865938684     7.467471299707327E-4     -1.7916057685750153      2458825.3685148656
0.5459190693883526        0.10084217412618264      0.14561339705324985      -0.4081993933275835      6.638313916070858E-5     -2.2574334824166753      2079613.3268105548
0.4963382284235184        0.0925653291858212       0.21974219869589434      0.13597518045887097      2.991980441377469E-4     -1.8828757448105662      979437.7250493194
0.6071585577707377        0.09382857673862571      0.1567436408728306       -0.35627408017064405     -7.171121242065779E-4    -2.7562550499269687      1642590.109403639
0.5571422153699721        0.0900672708097951       0.26389043491821806      0.48840587809606206      0.0013940367163126138    -2.346955002564237       2393339.603946945
0.6070175511059622        0.10251432307517101      0.22350126378485743      0.19348828321007533      -2.8524747942014456E-4   -2.753573172798296       1049786.566401909
0.6813327784355999        0.1053489069145061       0.11930491052616336      -0.7341782209937265      9.053809203493602E-4     -3.426461255779862       2721531.69488438
0.8144812879846273        0.11024921076839828      0.11738961240123115      -0.861314049081457       0.0013462962377783641    -4.777776168886901       1910733.76753669
0.8089868646029286        0.09484719254199778      0.2069492073057307       0.07094522397255344      -1.9485508386522405E-4   -4.717038367596905       1462146.8401322537
1.2735207855447928        0.12019536792157261      0.0776761060202004       -1.834189024926783       0.0029301300304664904    -11.001766083517426      2851197.190876702
1.3500219677350642        0.09203616000877865      0.19904503151740888      -0.014837131574913731    -0.0011549972718210946   -12.179722586840628      647533.8457896325
1.3736270794331393        0.1016812313482872       0.14327576306128453      -0.8908102559040573      -0.0010074997225560307   -12.557543401754971      1337204.3006408578
1.345907407034179         0.08896512937904202      0.25939427612836125      0.9210442357467935       -2.3069795421958107E-4   -12.117149507895453      1416483.534250978
1.295627140224192         0.10841537983375377      0.2897325778313122       1.3591622315886662       -0.002239107403752829    -11.335736308293614      2096749.8647991708
1.4177748163231878        0.09167062024896883      0.2951032945323015       1.5237326001440057       -2.8666976172122215E-4   -13.274166041306424      1994983.7712106109
1.5737004798577687        0.08684350320965892      0.11218408104345179      -1.492660576095738       -0.0028751443688628665   -15.891912236629942      1605552.2028055403
1.5082344072926146        0.11385472178048034      0.25730396369960873      0.9510058537880847       -0.0025018228676806846   -14.771166051895024      1221123.2868129136
1.559306271207691         0.09922610472743124      0.20910873922268178      0.1539041587890232       -0.0015596193216442088   -15.639600467075292      674172.5191409399
1.631854943063601         0.09359671288197938      0.17450502769128087      -0.44112217588817004     -0.001878710857240625    -16.902484374416137      770622.5375120015
1.6738241577237845        0.10643766141049081      0.12627462214013746      -1.2926527339793985      -0.0012650407020222516   -17.648282583291344      1224887.4229304262
1.6160617706200675        0.09455893526780568      0.2940807547846064       1.6218416673302967       -0.0011986674955405776   -16.62936426604574       1626644.9815281194
1.6890669073195879        0.09467859050682348      0.20568637358881373      0.09996353815632063      -0.0018114776029559809   -17.918629896941713      739445.9892790206
1.7036095325823772        0.10130817777916368      0.2674611749400769       1.192379640019805        -0.002018604068232101    -18.18127601209111       1096815.5962459757
1.7941177189629207        0.10658914988933929      0.28824177622449354      1.5938860364649443       -0.0025938505843037664   -19.829732911245017      971561.3858147117
2.18143920885122          0.09928910261728757      0.20890838216602725      0.16972267962491255      -0.0027691457490651157   -27.40319563115276       949362.7967119922
2.270140754687848         0.06952592900561787      0.14979277671408742      -0.9853654139139644      -0.0034250614288183654   -29.162994123697903      828314.9219343687
2.334937200802129         0.10522067503437911      0.14794281315446203      -1.027434813088267       -0.00293587695756768     -30.45324522045444       770913.4959428108
2.3436990988009283        0.0882018904064618       0.26602167552497313      1.2916329497468655       -0.0030291410224105035   -30.628464383794103      569166.3300804724
